&CONTROL
  calculation='relax',
  prefix='calc',
  pseudo_dir='/gpfs/pace1/project/chbe-medford/medford-share/data/pseudos/SSSP_eff_PBE',
  outdir='.',
  tprnfor=.true.,
/
&SYSTEM
  ibrav=0,
  celldm(1)=1.8897261245650618d0,
  nat=48,
  ntyp=4,
  ecutwfc=40.4242561699d0,
  ecutrho=330.743914118d0,
  nbnd=305,
  occupations='smearing',
  smearing='fd',
  degauss=0.00734986475817d0,
  input_dft='PBE',
/
&ELECTRONS
  diagonalization='david',
  conv_thr=3.67493237909e-07,
  mixing_beta=0.075d0,
  mixing_mode='local-TF',
  electron_maxstep=1000,
  conv_thr=3.67493237909e-07,
/
&IONS
  ion_dynamics='ase3',
/
CELL_PARAMETERS
   10.757639726259660d0     0.000000000000000d0     0.000000000000000d0
   -5.378819863129829d0     9.316389287701540d0     0.000000000000000d0
    0.000000000000000d0    -0.000000000000000d0    29.755733890304271d0
ATOMIC_SPECIES
Rh1 102.9055d0 Rh.UPF
O1 15.9994d0 O.UPF
C1 12.011d0 C.UPF
H1 1.00794d0 H.UPF
ATOMIC_POSITIONS {crystal}
Rh1      0.000000000000000d0     0.000000000000000d0     0.336069681119794d0
Rh1      0.166666666666667d0     0.083333333333333d0     0.409867021220061d0
Rh1      0.000000000000000d0     0.250000000000000d0     0.336069681119794d0
Rh1      0.166666666666667d0     0.333333333333333d0     0.409867021220061d0
Rh1      0.000000000000000d0     0.500000000000000d0     0.336069681119794d0
Rh1      0.166666666666667d0     0.583333333333333d0     0.409867021220061d0
Rh1      0.000000000000000d0     0.750000000000000d0     0.336069681119794d0
Rh1      0.166666666666667d0     0.833333333333333d0     0.409867021220061d0
Rh1      0.250000000000000d0     0.000000000000000d0     0.336069681119794d0
Rh1      0.416666666666667d0     0.083333333333333d0     0.409867021220061d0
Rh1      0.250000000000000d0     0.250000000000000d0     0.336069681119794d0
Rh1      0.416666666666667d0     0.333333333333333d0     0.409867021220061d0
Rh1      0.250000000000000d0     0.500000000000000d0     0.336069681119794d0
Rh1      0.416666666666667d0     0.583333333333333d0     0.409867021220061d0
Rh1      0.250000000000000d0     0.750000000000000d0     0.336069681119794d0
Rh1      0.416666666666667d0     0.833333333333333d0     0.409867021220061d0
Rh1      0.500000000000000d0     0.000000000000000d0     0.336069681119794d0
Rh1      0.666666666666667d0     0.083333333333333d0     0.409867021220061d0
Rh1      0.500000000000000d0     0.250000000000000d0     0.336069681119794d0
Rh1      0.666666666666667d0     0.333333333333333d0     0.409867021220061d0
Rh1      0.500000000000000d0     0.500000000000000d0     0.336069681119794d0
Rh1      0.666666666666667d0     0.583333333333333d0     0.409867021220061d0
Rh1      0.500000000000000d0     0.750000000000000d0     0.336069681119794d0
Rh1      0.666666666666667d0     0.833333333333333d0     0.409867021220061d0
Rh1      0.750000000000000d0     0.000000000000000d0     0.336069681119794d0
Rh1      0.916666666666667d0     0.083333333333333d0     0.409867021220061d0
Rh1      0.750000000000000d0     0.250000000000000d0     0.336069681119794d0
Rh1      0.916666666666667d0     0.333333333333333d0     0.409867021220061d0
Rh1      0.750000000000000d0     0.500000000000000d0     0.336069681119794d0
Rh1      0.916666666666667d0     0.583333333333333d0     0.409867021220061d0
Rh1      0.750000000000000d0     0.750000000000000d0     0.336069681119794d0
Rh1      0.916666666666667d0     0.833333333333333d0     0.409867021220061d0
O1       0.770590023303684d0     0.731485706431828d0     0.566195621053696d0
O1       0.520252341138914d0     0.240329158739178d0     0.493884441500009d0
O1       0.501095492171062d0     0.192552418482814d0     0.568711950264129d0
C1       0.646467678508276d0     0.485843818265160d0     0.592368405255013d0
C1       0.623414942148390d0     0.440649326043842d0     0.543103248226391d0
C1       0.726992423108360d0     0.647748513647550d0     0.598149859890407d0
C1       0.751017495076942d0     0.702026789563929d0     0.645836157910298d0
C1       0.542507235843632d0     0.279335882280411d0     0.537874940497210d0
H1       0.707994567928047d0     0.443378017967515d0     0.609240705305983d0
H1       0.542670044026352d0     0.442689824991354d0     0.609418990209628d0
H1       0.727221050075745d0     0.483020834342521d0     0.526120769042177d0
H1       0.561913397482463d0     0.483333138797872d0     0.526347969345875d0
H1       0.647568030661579d0     0.664811922149031d0     0.662334363129325d0
H1       0.813354433054773d0     0.663207553205490d0     0.663930318880206d0
H1       0.810585624760268d0     0.819396862249908d0     0.645918917257054d0
H1       0.467755354826525d0     0.135688423450536d0     0.490239127154522d0
K_POINTS automatic
4 4 1 0 0 0
