&CONTROL
  calculation='relax',
  prefix='calc',
  pseudo_dir='/gpfs/pace1/project/chbe-medford/medford-share/data/pseudos/SSSP_eff_PBE',
  outdir='.',
  tprnfor=.true.,
/
&SYSTEM
  ibrav=0,
  celldm(1)=1.8897261245650618d0,
  nat=48,
  ntyp=4,
  ecutwfc=40.4242561699d0,
  ecutrho=330.743914118d0,
  nbnd=289,
  occupations='smearing',
  smearing='fd',
  degauss=0.00734986475817d0,
  input_dft='PBE',
/
&ELECTRONS
  diagonalization='david',
  conv_thr=3.67493237909e-07,
  mixing_beta=0.15d0,
  mixing_mode='local-TF',
  electron_maxstep=1000,
  conv_thr=3.67493237909e-07,
/
&IONS
  ion_dynamics='ase3',
/
CELL_PARAMETERS
   11.099313722928999d0     0.000000000000000d0     0.000000000000000d0
   -5.549656861464499d0     9.612287648629747d0     0.000000000000000d0
    0.000000000000000d0    -0.000000000000000d0    29.825477802822377d0
ATOMIC_SPECIES
Pt1 195.08d0 Pt.UPF
O1 15.9994d0 O.UPF
C1 12.011d0 C.UPF
H1 1.00794d0 H.UPF
ATOMIC_POSITIONS {crystal}
Pt1      0.000000000000000d0     0.000000000000000d0     0.335283815605921d0
Pt1      0.166666666666667d0     0.083333333333333d0     0.411246988478865d0
Pt1      0.000000000000000d0     0.250000000000000d0     0.335283815605921d0
Pt1      0.166666666666667d0     0.333333333333333d0     0.411246988478865d0
Pt1      0.000000000000000d0     0.500000000000000d0     0.335283815605921d0
Pt1      0.166666666666667d0     0.583333333333333d0     0.411246988478865d0
Pt1      0.000000000000000d0     0.750000000000000d0     0.335283815605921d0
Pt1      0.166666666666667d0     0.833333333333333d0     0.411246988478865d0
Pt1      0.250000000000000d0     0.000000000000000d0     0.335283815605921d0
Pt1      0.416666666666667d0     0.083333333333333d0     0.411246988478865d0
Pt1      0.250000000000000d0     0.250000000000000d0     0.335283815605921d0
Pt1      0.416666666666667d0     0.333333333333333d0     0.411246988478865d0
Pt1      0.250000000000000d0     0.500000000000000d0     0.335283815605921d0
Pt1      0.416666666666667d0     0.583333333333333d0     0.411246988478865d0
Pt1      0.250000000000000d0     0.750000000000000d0     0.335283815605921d0
Pt1      0.416666666666667d0     0.833333333333333d0     0.411246988478865d0
Pt1      0.500000000000000d0     0.000000000000000d0     0.335283815605921d0
Pt1      0.666666666666667d0     0.083333333333333d0     0.411246988478865d0
Pt1      0.500000000000000d0     0.250000000000000d0     0.335283815605921d0
Pt1      0.666666666666667d0     0.333333333333333d0     0.411246988478865d0
Pt1      0.500000000000000d0     0.500000000000000d0     0.335283815605921d0
Pt1      0.666666666666667d0     0.583333333333333d0     0.411246988478865d0
Pt1      0.500000000000000d0     0.750000000000000d0     0.335283815605921d0
Pt1      0.666666666666667d0     0.833333333333333d0     0.411246988478865d0
Pt1      0.750000000000000d0     0.000000000000000d0     0.335283815605921d0
Pt1      0.916666666666667d0     0.083333333333333d0     0.411246988478865d0
Pt1      0.750000000000000d0     0.250000000000000d0     0.335283815605921d0
Pt1      0.916666666666667d0     0.333333333333333d0     0.411246988478865d0
Pt1      0.750000000000000d0     0.500000000000000d0     0.335283815605921d0
Pt1      0.916666666666667d0     0.583333333333333d0     0.411246988478865d0
Pt1      0.750000000000000d0     0.750000000000000d0     0.335283815605921d0
Pt1      0.916666666666667d0     0.833333333333333d0     0.411246988478865d0
O1       0.742248784238839d0     0.725143193646063d0     0.566518849455661d0
O1       0.500901551657645d0     0.252154355653561d0     0.495892971177545d0
O1       0.480251548577784d0     0.201294259955116d0     0.569907195040236d0
C1       0.623039101987526d0     0.489593732625093d0     0.593172991474395d0
C1       0.599756371993236d0     0.443747551090581d0     0.544665949862697d0
C1       0.701134570448762d0     0.646644525271028d0     0.598664038739798d0
C1       0.724452480725269d0     0.698906806783868d0     0.646624192578198d0
C1       0.521525626443250d0     0.287700682701026d0     0.540155981358101d0
H1       0.679825526244606d0     0.445995515047357d0     0.610839867447783d0
H1       0.522999715042084d0     0.445273622420351d0     0.611054720455078d0
H1       0.698899412157834d0     0.485850003445921d0     0.526390699629203d0
H1       0.542661475121782d0     0.486125949947072d0     0.526584049602925d0
H1       0.623701818534389d0     0.659944408872515d0     0.663863010904359d0
H1       0.782182995810498d0     0.658309769309519d0     0.665482493253263d0
H1       0.782277518394861d0     0.813062595569480d0     0.646674921077575d0
H1       0.449929490392377d0     0.150019070883606d0     0.492800527167503d0
K_POINTS automatic
4 4 1 0 0 0
