&CONTROL
  calculation='relax',
  prefix='calc',
  pseudo_dir='/gpfs/pace1/project/chbe-medford/medford-share/data/pseudos/SSSP_eff_PBE',
  outdir='.',
  tprnfor=.true.,
/
&SYSTEM
  ibrav=0,
  celldm(1)=1.8897261245650618d0,
  nat=48,
  ntyp=4,
  ecutwfc=40.4242561699d0,
  ecutrho=330.743914118d0,
  nbnd=305,
  occupations='smearing',
  smearing='fd',
  degauss=0.00734986475817d0,
  input_dft='PBE',
/
&ELECTRONS
  diagonalization='david',
  conv_thr=3.67493237909e-07,
  mixing_beta=0.15d0,
  mixing_mode='local-TF',
  electron_maxstep=1000,
  conv_thr=3.67493237909e-07,
/
&IONS
  ion_dynamics='ase3',
/
CELL_PARAMETERS
   10.757639726259660d0     0.000000000000000d0     0.000000000000000d0
   -5.378819863129829d0     9.316389287701540d0     0.000000000000000d0
    0.000000000000000d0    -0.000000000000000d0    29.755733890304271d0
ATOMIC_SPECIES
Rh1 102.9055d0 Rh.UPF
O1 15.9994d0 O.UPF
C1 12.011d0 C.UPF
H1 1.00794d0 H.UPF
ATOMIC_POSITIONS {crystal}
Rh1      0.000000000000000d0     0.000000000000000d0     0.336069681119794d0
Rh1      0.166666666666667d0     0.083333333333333d0     0.409867021220061d0
Rh1      0.000000000000000d0     0.250000000000000d0     0.336069681119794d0
Rh1      0.166666666666667d0     0.333333333333333d0     0.409867021220061d0
Rh1      0.000000000000000d0     0.500000000000000d0     0.336069681119794d0
Rh1      0.166666666666667d0     0.583333333333333d0     0.409867021220061d0
Rh1      0.000000000000000d0     0.750000000000000d0     0.336069681119794d0
Rh1      0.166666666666667d0     0.833333333333333d0     0.409867021220061d0
Rh1      0.250000000000000d0     0.000000000000000d0     0.336069681119794d0
Rh1      0.416666666666667d0     0.083333333333333d0     0.409867021220061d0
Rh1      0.250000000000000d0     0.250000000000000d0     0.336069681119794d0
Rh1      0.416666666666667d0     0.333333333333333d0     0.409867021220061d0
Rh1      0.250000000000000d0     0.500000000000000d0     0.336069681119794d0
Rh1      0.416666666666667d0     0.583333333333333d0     0.409867021220061d0
Rh1      0.250000000000000d0     0.750000000000000d0     0.336069681119794d0
Rh1      0.416666666666667d0     0.833333333333333d0     0.409867021220061d0
Rh1      0.500000000000000d0     0.000000000000000d0     0.336069681119794d0
Rh1      0.666666666666667d0     0.083333333333333d0     0.409867021220061d0
Rh1      0.500000000000000d0     0.250000000000000d0     0.336069681119794d0
Rh1      0.666666666666667d0     0.333333333333333d0     0.409867021220061d0
Rh1      0.500000000000000d0     0.500000000000000d0     0.336069681119794d0
Rh1      0.666666666666667d0     0.583333333333333d0     0.409867021220061d0
Rh1      0.500000000000000d0     0.750000000000000d0     0.336069681119794d0
Rh1      0.666666666666667d0     0.833333333333333d0     0.409867021220061d0
Rh1      0.750000000000000d0     0.000000000000000d0     0.336069681119794d0
Rh1      0.916666666666667d0     0.083333333333333d0     0.409867021220061d0
Rh1      0.750000000000000d0     0.250000000000000d0     0.336069681119794d0
Rh1      0.916666666666667d0     0.333333333333333d0     0.409867021220061d0
Rh1      0.750000000000000d0     0.500000000000000d0     0.336069681119794d0
Rh1      0.916666666666667d0     0.583333333333333d0     0.409867021220061d0
Rh1      0.750000000000000d0     0.750000000000000d0     0.336069681119794d0
Rh1      0.916666666666667d0     0.833333333333333d0     0.409867021220061d0
O1       0.774843038143061d0     0.744334160853712d0     0.571011022022652d0
O1       0.542208784183459d0     0.215073228612631d0     0.519115209550876d0
O1       0.501164385698601d0     0.205641655965125d0     0.593743655829315d0
C1       0.657079453989115d0     0.506101417762775d0     0.602873575441759d0
C1       0.626509635259095d0     0.438301468319159d0     0.556363513726025d0
C1       0.737099335325297d0     0.669309388913219d0     0.604735471212824d0
C1       0.766540502429237d0     0.732455043200468d0     0.651784546527579d0
C1       0.551373344221789d0     0.276808552089297d0     0.559816966885221d0
H1       0.717977777936349d0     0.468301799559295d0     0.622856591753933d0
H1       0.555384369461447d0     0.466163739325551d0     0.621469012125209d0
H1       0.723713559365593d0     0.474741112275029d0     0.535924254457643d0
H1       0.556339695416582d0     0.464434805357735d0     0.536391092707307d0
H1       0.664621668135248d0     0.696987950247141d0     0.669696993714098d0
H1       0.826886294325278d0     0.693673419264712d0     0.671388553112200d0
H1       0.826829700872455d0     0.849751581332600d0     0.650273796905264d0
H1       0.489407691659545d0     0.111502491406613d0     0.524221410897484d0
K_POINTS automatic
4 4 1 0 0 0
