&CONTROL
  calculation='relax',
  prefix='calc',
  pseudo_dir='/gpfs/pace1/project/chbe-medford/medford-share/data/pseudos/SSSP_eff_PBE',
  outdir='.',
  tprnfor=.true.,
/
&SYSTEM
  ibrav=0,
  celldm(1)=1.8897261245650618d0,
  nat=47,
  ntyp=4,
  ecutwfc=40.4242561699d0,
  ecutrho=330.743914118d0,
  nbnd=291,
  occupations='smearing',
  smearing='fd',
  degauss=0.00734986475817d0,
  input_dft='PBE',
/
&ELECTRONS
  diagonalization='david',
  conv_thr=3.67493237909e-07,
  mixing_beta=0.075d0,
  mixing_mode='local-TF',
  electron_maxstep=1000,
  conv_thr=3.67493237909e-07,
/
&IONS
  ion_dynamics='ase3',
/
CELL_PARAMETERS
   11.099313722928999d0     0.000000000000000d0     0.000000000000000d0
   -5.549656861464499d0     9.612287648629747d0     0.000000000000000d0
    0.000000000000000d0    -0.000000000000000d0    30.089144855195627d0
ATOMIC_SPECIES
Pt1 195.08d0 Pt.UPF
O1 15.9994d0 O.UPF
C1 12.011d0 C.UPF
H1 1.00794d0 H.UPF
ATOMIC_POSITIONS {crystal}
Pt1      0.000000000000000d0     0.000000000000000d0     0.332345769483484d0
Pt1      0.166666666666667d0     0.083333333333333d0     0.407643287483990d0
Pt1      0.000000000000000d0     0.250000000000000d0     0.332345769483484d0
Pt1      0.166666666666667d0     0.333333333333333d0     0.407643287483990d0
Pt1      0.000000000000000d0     0.500000000000000d0     0.332345769483484d0
Pt1      0.166666666666667d0     0.583333333333333d0     0.407643287483990d0
Pt1      0.000000000000000d0     0.750000000000000d0     0.332345769483484d0
Pt1      0.166666666666667d0     0.833333333333333d0     0.407643287483990d0
Pt1      0.250000000000000d0     0.000000000000000d0     0.332345769483484d0
Pt1      0.416666666666667d0     0.083333333333333d0     0.407643287483990d0
Pt1      0.250000000000000d0     0.250000000000000d0     0.332345769483484d0
Pt1      0.416666666666667d0     0.333333333333333d0     0.407643287483990d0
Pt1      0.250000000000000d0     0.500000000000000d0     0.332345769483484d0
Pt1      0.416666666666667d0     0.583333333333333d0     0.407643287483990d0
Pt1      0.250000000000000d0     0.750000000000000d0     0.332345769483484d0
Pt1      0.416666666666667d0     0.833333333333333d0     0.407643287483990d0
Pt1      0.500000000000000d0     0.000000000000000d0     0.332345769483484d0
Pt1      0.666666666666667d0     0.083333333333333d0     0.407643287483990d0
Pt1      0.500000000000000d0     0.250000000000000d0     0.332345769483484d0
Pt1      0.666666666666667d0     0.333333333333333d0     0.407643287483990d0
Pt1      0.500000000000000d0     0.500000000000000d0     0.332345769483484d0
Pt1      0.666666666666667d0     0.583333333333333d0     0.407643287483990d0
Pt1      0.500000000000000d0     0.750000000000000d0     0.332345769483484d0
Pt1      0.666666666666667d0     0.833333333333333d0     0.407643287483990d0
Pt1      0.750000000000000d0     0.000000000000000d0     0.332345769483484d0
Pt1      0.916666666666667d0     0.083333333333333d0     0.407643287483990d0
Pt1      0.750000000000000d0     0.250000000000000d0     0.332345769483484d0
Pt1      0.916666666666667d0     0.333333333333333d0     0.407643287483990d0
Pt1      0.750000000000000d0     0.500000000000000d0     0.332345769483484d0
Pt1      0.916666666666667d0     0.583333333333333d0     0.407643287483990d0
Pt1      0.750000000000000d0     0.750000000000000d0     0.332345769483484d0
Pt1      0.916666666666667d0     0.833333333333333d0     0.407643287483990d0
O1       0.416620619506730d0     0.583315877027389d0     0.490729729854861d0
O1       0.664541780466069d0     0.716426749982007d0     0.609552615777770d0
O1       0.324316089021260d0     0.546602452200750d0     0.560262600046837d0
O1       0.595256915796264d0     0.565931877909986d0     0.667654230516516d0
C1       0.525862230689619d0     0.519137606198390d0     0.545195338221807d0
C1       0.521426415501726d0     0.480073024100337d0     0.593246665166247d0
C1       0.410500256790361d0     0.549369743502503d0     0.534381306941334d0
C1       0.595355587779306d0     0.587955771465666d0     0.627872339778415d0
C1       0.448724882099153d0     0.347659175646536d0     0.607163441428624d0
H1       0.626303370232539d0     0.609459497483423d0     0.536519061406000d0
H1       0.511830069309197d0     0.432675358044750d0     0.523956371607211d0
H1       0.391085859405138d0     0.263745748428721d0     0.583716921587774d0
H1       0.443809470454472d0     0.318300919806135d0     0.641790656782666d0
H1       0.343567535217761d0     0.604507502522392d0     0.482683156222559d0
H1       0.714044829856375d0     0.788958911470057d0     0.631961863487961d0
K_POINTS automatic
4 4 1 0 0 0
