&CONTROL
  calculation='relax',
  prefix='calc',
  pseudo_dir='/gpfs/pace1/project/chbe-medford/medford-share/data/pseudos/SSSP_eff_PBE',
  outdir='.',
  tprnfor=.true.,
/
&SYSTEM
  ibrav=0,
  celldm(1)=1.8897261245650618d0,
  nat=48,
  ntyp=4,
  ecutwfc=40.4242561699d0,
  ecutrho=330.743914118d0,
  nbnd=305,
  occupations='smearing',
  smearing='fd',
  degauss=0.00734986475817d0,
  input_dft='PBE',
/
&ELECTRONS
  diagonalization='david',
  conv_thr=3.67493237909e-07,
  mixing_beta=0.15d0,
  mixing_mode='local-TF',
  electron_maxstep=1000,
  conv_thr=3.67493237909e-07,
/
&IONS
  ion_dynamics='ase3',
/
CELL_PARAMETERS
   10.757639726259660d0     0.000000000000000d0     0.000000000000000d0
   -5.378819863129829d0     9.316389287701540d0     0.000000000000000d0
    0.000000000000000d0    -0.000000000000000d0    29.755733890304271d0
ATOMIC_SPECIES
Rh1 102.9055d0 Rh.UPF
O1 15.9994d0 O.UPF
C1 12.011d0 C.UPF
H1 1.00794d0 H.UPF
ATOMIC_POSITIONS {crystal}
Rh1      0.000000000000000d0     0.000000000000000d0     0.336069681119794d0
Rh1      0.166666666666667d0     0.083333333333333d0     0.409867021220061d0
Rh1      0.000000000000000d0     0.250000000000000d0     0.336069681119794d0
Rh1      0.166666666666667d0     0.333333333333333d0     0.409867021220061d0
Rh1      0.000000000000000d0     0.500000000000000d0     0.336069681119794d0
Rh1      0.166666666666667d0     0.583333333333333d0     0.409867021220061d0
Rh1      0.000000000000000d0     0.750000000000000d0     0.336069681119794d0
Rh1      0.166666666666667d0     0.833333333333333d0     0.409867021220061d0
Rh1      0.250000000000000d0     0.000000000000000d0     0.336069681119794d0
Rh1      0.416666666666667d0     0.083333333333333d0     0.409867021220061d0
Rh1      0.250000000000000d0     0.250000000000000d0     0.336069681119794d0
Rh1      0.416666666666667d0     0.333333333333333d0     0.409867021220061d0
Rh1      0.250000000000000d0     0.500000000000000d0     0.336069681119794d0
Rh1      0.416666666666667d0     0.583333333333333d0     0.409867021220061d0
Rh1      0.250000000000000d0     0.750000000000000d0     0.336069681119794d0
Rh1      0.416666666666667d0     0.833333333333333d0     0.409867021220061d0
Rh1      0.500000000000000d0     0.000000000000000d0     0.336069681119794d0
Rh1      0.666666666666667d0     0.083333333333333d0     0.409867021220061d0
Rh1      0.500000000000000d0     0.250000000000000d0     0.336069681119794d0
Rh1      0.666666666666667d0     0.333333333333333d0     0.409867021220061d0
Rh1      0.500000000000000d0     0.500000000000000d0     0.336069681119794d0
Rh1      0.666666666666667d0     0.583333333333333d0     0.409867021220061d0
Rh1      0.500000000000000d0     0.750000000000000d0     0.336069681119794d0
Rh1      0.666666666666667d0     0.833333333333333d0     0.409867021220061d0
Rh1      0.750000000000000d0     0.000000000000000d0     0.336069681119794d0
Rh1      0.916666666666667d0     0.083333333333333d0     0.409867021220061d0
Rh1      0.750000000000000d0     0.250000000000000d0     0.336069681119794d0
Rh1      0.916666666666667d0     0.333333333333333d0     0.409867021220061d0
Rh1      0.750000000000000d0     0.500000000000000d0     0.336069681119794d0
Rh1      0.916666666666667d0     0.583333333333333d0     0.409867021220061d0
Rh1      0.750000000000000d0     0.750000000000000d0     0.336069681119794d0
Rh1      0.916666666666667d0     0.833333333333333d0     0.409867021220061d0
O1       0.906405674546131d0     0.804370756330963d0     0.561052935755382d0
O1       0.638873590081123d0     0.282921038500667d0     0.514050997459372d0
O1       0.646119229169624d0     0.270425259178413d0     0.589910873991254d0
C1       0.790260157872867d0     0.576542768467835d0     0.599105634021786d0
C1       0.753907819178395d0     0.504487845806372d0     0.553286208384916d0
C1       0.872489978319901d0     0.739679410826023d0     0.596818994373080d0
C1       0.909858099799854d0     0.817504901435654d0     0.641521268582381d0
C1       0.675368048252345d0     0.342799260055087d0     0.555982547106688d0
H1       0.853658432319209d0     0.541581749831630d0     0.619062070732656d0
H1       0.692256408836121d0     0.542364256226240d0     0.619224283587395d0
H1       0.851514383279590d0     0.539130520084029d0     0.533015294662460d0
H1       0.688631836165928d0     0.536869059720390d0     0.533286340169627d0
H1       0.811442332863874d0     0.789487075020696d0     0.660540248038488d0
H1       0.972635473956405d0     0.783992802385660d0     0.662301438387611d0
H1       0.971156191358055d0     0.933807009628192d0     0.636148694470304d0
H1       0.589511058789186d0     0.178630583713821d0     0.518113200779601d0
K_POINTS automatic
4 4 1 0 0 0
