&CONTROL
  calculation='relax',
  prefix='calc',
  pseudo_dir='/gpfs/pace1/project/chbe-medford/medford-share/data/pseudos/SSSP_eff_PBE',
  outdir='.',
  tprnfor=.true.,
/
&SYSTEM
  ibrav=0,
  celldm(1)=1.8897261245650618d0,
  nat=47,
  ntyp=4,
  ecutwfc=40.4242561699d0,
  ecutrho=330.743914118d0,
  nbnd=339,
  occupations='smearing',
  smearing='fd',
  degauss=0.00734986475817d0,
  input_dft='PBE',
/
&ELECTRONS
  diagonalization='david',
  conv_thr=7.34986475817e-07,
  mixing_beta=0.2d0,
  mixing_mode='local-TF',
  electron_maxstep=1000,
  conv_thr=7.34986475817e-07,
/
&IONS
  ion_dynamics='ase3',
/
CELL_PARAMETERS
   11.534891500139912d0     0.000000000000000d0     0.000000000000000d0
   -5.767445750069956d0     9.989509069018357d0     0.000000000000000d0
    0.000000000000000d0    -0.000000000000000d0    30.178056796650829d0
ATOMIC_SPECIES
Au1 196.9665d0 Au.UPF
O1 15.9994d0 O.UPF
C1 12.011d0 C.UPF
H1 1.00794d0 H.UPF
ATOMIC_POSITIONS {crystal}
Au1      0.000000000000000d0     0.000000000000000d0     0.331366597504376d0
Au1      0.166666666666667d0     0.083333333333333d0     0.409388515339405d0
Au1      0.000000000000000d0     0.250000000000000d0     0.331366597504376d0
Au1      0.166666666666667d0     0.333333333333333d0     0.409388515339405d0
Au1      0.000000000000000d0     0.500000000000000d0     0.331366597504376d0
Au1      0.166666666666667d0     0.583333333333333d0     0.409388515339405d0
Au1      0.000000000000000d0     0.750000000000000d0     0.331366597504376d0
Au1      0.166666666666667d0     0.833333333333333d0     0.409388515339405d0
Au1      0.250000000000000d0     0.000000000000000d0     0.331366597504376d0
Au1      0.416666666666667d0     0.083333333333333d0     0.409388515339405d0
Au1      0.250000000000000d0     0.250000000000000d0     0.331366597504376d0
Au1      0.416666666666667d0     0.333333333333333d0     0.409388515339405d0
Au1      0.250000000000000d0     0.500000000000000d0     0.331366597504376d0
Au1      0.416666666666667d0     0.583333333333333d0     0.409388515339405d0
Au1      0.250000000000000d0     0.750000000000000d0     0.331366597504376d0
Au1      0.416666666666667d0     0.833333333333333d0     0.409388515339405d0
Au1      0.500000000000000d0     0.000000000000000d0     0.331366597504376d0
Au1      0.666666666666667d0     0.083333333333333d0     0.409388515339405d0
Au1      0.500000000000000d0     0.250000000000000d0     0.331366597504376d0
Au1      0.666666666666667d0     0.333333333333333d0     0.409388515339405d0
Au1      0.500000000000000d0     0.500000000000000d0     0.331366597504376d0
Au1      0.666666666666667d0     0.583333333333333d0     0.409388515339405d0
Au1      0.500000000000000d0     0.750000000000000d0     0.331366597504376d0
Au1      0.666666666666667d0     0.833333333333333d0     0.409388515339405d0
Au1      0.750000000000000d0     0.000000000000000d0     0.331366597504376d0
Au1      0.916666666666667d0     0.083333333333333d0     0.409388515339405d0
Au1      0.750000000000000d0     0.250000000000000d0     0.331366597504376d0
Au1      0.916666666666667d0     0.333333333333333d0     0.409388515339405d0
Au1      0.750000000000000d0     0.500000000000000d0     0.331366597504376d0
Au1      0.916666666666667d0     0.583333333333333d0     0.409388515339405d0
Au1      0.750000000000000d0     0.750000000000000d0     0.331366597504376d0
Au1      0.916666666666667d0     0.833333333333333d0     0.409388515339405d0
O1       0.500036311094233d0     0.500024572327742d0     0.492230164715499d0
O1       0.738595533260050d0     0.628108944758842d0     0.610702969334370d0
O1       0.411217361917860d0     0.464697510951473d0     0.561558174053598d0
O1       0.671926986857900d0     0.483297023571793d0     0.668633402495624d0
C1       0.605152767031630d0     0.438269785807425d0     0.546535304069643d0
C1       0.600884456021790d0     0.400680350990795d0     0.594445060044259d0
C1       0.494147064031417d0     0.467360304469775d0     0.535753133572076d0
C1       0.672021932813432d0     0.504489256196774d0     0.628968718944325d0
C1       0.530928260303488d0     0.273266682190244d0     0.608320834077611d0
H1       0.701801072606227d0     0.525180963724331d0     0.537884589688869d0
H1       0.591650484728394d0     0.355072504113413d0     0.525358912648968d0
H1       0.475465788414946d0     0.192521973473616d0     0.584943393422789d0
H1       0.526198463242026d0     0.245017045691568d0     0.642846029180148d0
H1       0.429741839668905d0     0.520415964796843d0     0.484207298258531d0
H1       0.786229260496929d0     0.697902164343807d0     0.633046193916104d0
K_POINTS automatic
2 2 1 0 0 0
