&CONTROL
  calculation='relax',
  prefix='calc',
  pseudo_dir='/gpfs/pace1/project/chbe-medford/medford-share/data/pseudos/SSSP_eff_PBE',
  outdir='.',
  tprnfor=.true.,
/
&SYSTEM
  ibrav=0,
  celldm(1)=1.8897261245650618d0,
  nat=47,
  ntyp=4,
  ecutwfc=40.4242561699d0,
  ecutrho=330.743914118d0,
  nbnd=339,
  occupations='smearing',
  smearing='fd',
  degauss=0.00734986475817d0,
  input_dft='PBE',
/
&ELECTRONS
  diagonalization='david',
  conv_thr=3.67493237909e-07,
  mixing_beta=0.15d0,
  mixing_mode='local-TF',
  electron_maxstep=1000,
  conv_thr=3.67493237909e-07,
/
&IONS
  ion_dynamics='ase3',
/
CELL_PARAMETERS
   11.534891500139912d0     0.000000000000000d0     0.000000000000000d0
   -5.767445750069956d0     9.989509069018357d0     0.000000000000000d0
    0.000000000000000d0    -0.000000000000000d0    30.178056796650829d0
ATOMIC_SPECIES
Au1 196.9665d0 Au.UPF
O1 15.9994d0 O.UPF
C1 12.011d0 C.UPF
H1 1.00794d0 H.UPF
ATOMIC_POSITIONS {crystal}
Au1      0.000000000000000d0     0.000000000000000d0     0.331366597504376d0
Au1      0.166666666666667d0     0.083333333333333d0     0.409388515339405d0
Au1      0.000000000000000d0     0.250000000000000d0     0.331366597504376d0
Au1      0.166666666666667d0     0.333333333333333d0     0.409388515339405d0
Au1      0.000000000000000d0     0.500000000000000d0     0.331366597504376d0
Au1      0.166666666666667d0     0.583333333333333d0     0.409388515339405d0
Au1      0.000000000000000d0     0.750000000000000d0     0.331366597504376d0
Au1      0.166666666666667d0     0.833333333333333d0     0.409388515339405d0
Au1      0.250000000000000d0     0.000000000000000d0     0.331366597504376d0
Au1      0.416666666666667d0     0.083333333333333d0     0.409388515339405d0
Au1      0.250000000000000d0     0.250000000000000d0     0.331366597504376d0
Au1      0.416666666666667d0     0.333333333333333d0     0.409388515339405d0
Au1      0.250000000000000d0     0.500000000000000d0     0.331366597504376d0
Au1      0.416666666666667d0     0.583333333333333d0     0.409388515339405d0
Au1      0.250000000000000d0     0.750000000000000d0     0.331366597504376d0
Au1      0.416666666666667d0     0.833333333333333d0     0.409388515339405d0
Au1      0.500000000000000d0     0.000000000000000d0     0.331366597504376d0
Au1      0.666666666666667d0     0.083333333333333d0     0.409388515339405d0
Au1      0.500000000000000d0     0.250000000000000d0     0.331366597504376d0
Au1      0.666666666666667d0     0.333333333333333d0     0.409388515339405d0
Au1      0.500000000000000d0     0.500000000000000d0     0.331366597504376d0
Au1      0.666666666666667d0     0.583333333333333d0     0.409388515339405d0
Au1      0.500000000000000d0     0.750000000000000d0     0.331366597504376d0
Au1      0.666666666666667d0     0.833333333333333d0     0.409388515339405d0
Au1      0.750000000000000d0     0.000000000000000d0     0.331366597504376d0
Au1      0.916666666666667d0     0.083333333333333d0     0.409388515339405d0
Au1      0.750000000000000d0     0.250000000000000d0     0.331366597504376d0
Au1      0.916666666666667d0     0.333333333333333d0     0.409388515339405d0
Au1      0.750000000000000d0     0.500000000000000d0     0.331366597504376d0
Au1      0.916666666666667d0     0.583333333333333d0     0.409388515339405d0
Au1      0.750000000000000d0     0.750000000000000d0     0.331366597504376d0
Au1      0.916666666666667d0     0.833333333333333d0     0.409388515339405d0
O1       0.504841053858756d0     0.509677039324815d0     0.497751051798220d0
O1       0.736013014304062d0     0.626208080800458d0     0.612637200118796d0
O1       0.409309037211570d0     0.463103178400295d0     0.564985874382704d0
O1       0.675365237139115d0     0.482797621554594d0     0.670699327543072d0
C1       0.601397697027426d0     0.434932931073098d0     0.549295806583858d0
C1       0.601170669288385d0     0.397854561581338d0     0.596943244991097d0
C1       0.494155052315056d0     0.469291349720234d0     0.539686508335430d0
C1       0.672788385402265d0     0.502737645681300d0     0.631170122371946d0
C1       0.535890010710056d0     0.270906356664430d0     0.610602478946174d0
H1       0.697840411060813d0     0.518545395025993d0     0.539524451601107d0
H1       0.582739516565891d0     0.350487542663926d0     0.528450804369709d0
H1       0.481163657787701d0     0.189675638515215d0     0.587305276415162d0
H1       0.535516294145209d0     0.243756741312992d0     0.644918151661992d0
H1       0.436067184457754d0     0.532633224962055d0     0.490834630208619d0
H1       0.783812017965080d0     0.695682771784805d0     0.635002963559636d0
K_POINTS automatic
4 4 1 0 0 0
