&CONTROL
  calculation='relax',
  prefix='calc',
  pseudo_dir='/gpfs/pace1/project/chbe-medford/medford-share/data/pseudos/SSSP_eff_PBE',
  outdir='.',
  tprnfor=.true.,
/
&SYSTEM
  ibrav=0,
  celldm(1)=1.8897261245650618d0,
  nat=56,
  ntyp=4,
  ecutwfc=40.4242561699d0,
  ecutrho=330.743914118d0,
  nbnd=307,
  occupations='smearing',
  smearing='fd',
  degauss=0.00734986475817d0,
  input_dft='PBE',
/
&ELECTRONS
  diagonalization='david',
  conv_thr=3.67493237909e-07,
  mixing_beta=0.15d0,
  mixing_mode='local-TF',
  electron_maxstep=1000,
  conv_thr=3.67493237909e-07,
/
&IONS
  ion_dynamics='ase3',
/
CELL_PARAMETERS
   11.099313722928999d0     0.000000000000000d0     0.000000000000000d0
   -5.549656861464499d0     9.612287648629747d0     0.000000000000000d0
    0.000000000000000d0    -0.000000000000000d0    29.545234585417450d0
ATOMIC_SPECIES
Pt1 195.08d0 Pt.UPF
O1 15.9994d0 O.UPF
C1 12.011d0 C.UPF
H1 1.00794d0 H.UPF
ATOMIC_POSITIONS {crystal}
Pt1      0.000000000000000d0     0.000000000000000d0     0.338464058259184d0
Pt1      0.166666666666667d0     0.083333333333333d0     0.415147758969152d0
Pt1      0.000000000000000d0     0.250000000000000d0     0.338464058259184d0
Pt1      0.166666666666667d0     0.333333333333333d0     0.415147758969152d0
Pt1      0.000000000000000d0     0.500000000000000d0     0.338464058259184d0
Pt1      0.166666666666667d0     0.583333333333333d0     0.415147758969152d0
Pt1      0.000000000000000d0     0.750000000000000d0     0.338464058259184d0
Pt1      0.166666666666667d0     0.833333333333333d0     0.415147758969152d0
Pt1      0.250000000000000d0     0.000000000000000d0     0.338464058259184d0
Pt1      0.416666666666667d0     0.083333333333333d0     0.415147758969152d0
Pt1      0.250000000000000d0     0.250000000000000d0     0.338464058259184d0
Pt1      0.416666666666667d0     0.333333333333333d0     0.415147758969152d0
Pt1      0.250000000000000d0     0.500000000000000d0     0.338464058259184d0
Pt1      0.416666666666667d0     0.583333333333333d0     0.415147758969152d0
Pt1      0.250000000000000d0     0.750000000000000d0     0.338464058259184d0
Pt1      0.416666666666667d0     0.833333333333333d0     0.415147758969152d0
Pt1      0.500000000000000d0     0.000000000000000d0     0.338464058259184d0
Pt1      0.666666666666667d0     0.083333333333333d0     0.415147758969152d0
Pt1      0.500000000000000d0     0.250000000000000d0     0.338464058259184d0
Pt1      0.666666666666667d0     0.333333333333333d0     0.415147758969152d0
Pt1      0.500000000000000d0     0.500000000000000d0     0.338464058259184d0
Pt1      0.666666666666667d0     0.583333333333333d0     0.415147758969152d0
Pt1      0.500000000000000d0     0.750000000000000d0     0.338464058259184d0
Pt1      0.666666666666667d0     0.833333333333333d0     0.415147758969152d0
Pt1      0.750000000000000d0     0.000000000000000d0     0.338464058259184d0
Pt1      0.916666666666667d0     0.083333333333333d0     0.415147758969152d0
Pt1      0.750000000000000d0     0.250000000000000d0     0.338464058259184d0
Pt1      0.916666666666667d0     0.333333333333333d0     0.415147758969152d0
Pt1      0.750000000000000d0     0.500000000000000d0     0.338464058259184d0
Pt1      0.916666666666667d0     0.583333333333333d0     0.415147758969152d0
Pt1      0.750000000000000d0     0.750000000000000d0     0.338464058259184d0
Pt1      0.916666666666667d0     0.833333333333333d0     0.415147758969152d0
O1       0.629685847897303d0     0.197142764163891d0     0.649509559687900d0
O1       0.774941466860629d0     0.460887555375295d0     0.616306075282537d0
O1       0.350486377606959d0     0.040858955391924d0     0.642071700798554d0
O1       0.527563629634565d0     0.486144012215487d0     0.597168714238214d0
O1       0.445772121661503d0     0.092026877990801d0     0.527123056892376d0
O1       0.760618954262151d0     0.493256478060803d0     0.509644584544539d0
O1       0.480113183667162d0     0.951470113372145d0     0.574271999164853d0
O1       0.735658570918398d0     0.671868975751463d0     0.537177917201003d0
C1       0.555161049885284d0     0.248632039579294d0     0.624819750403673d0
C1       0.653966634479805d0     0.361197784156909d0     0.591589213268722d0
C1       0.423228554219809d0     0.124843654356123d0     0.604540402069917d0
C1       0.589489469958553d0     0.435864899511320d0     0.566026774934399d0
C1       0.454707616555156d0     0.044324210241510d0     0.568666778934996d0
C1       0.704095543155733d0     0.549856790145356d0     0.537180494271328d0
H1       0.513459512895264d0     0.296411653267108d0     0.648357062325497d0
H1       0.692427531854782d0     0.316052433249478d0     0.566120871070189d0
H1       0.363753230567585d0     0.167175848412594d0     0.586995084042955d0
H1       0.513049825602059d0     0.361818892049366d0     0.540920836561493d0
H1       0.720001310287254d0     0.279693231524526d0     0.656948692008641d0
H1       0.748527528684656d0     0.521133514858975d0     0.632648256257678d0
H1       0.268727139753102d0     0.956866798555478d0     0.631752959115003d0
H1       0.518427036779114d0     0.560337355277334d0     0.582444150576453d0
H1       0.464031407479677d0     0.038269169100991d0     0.504240494937997d0
H1       0.818537838537028d0     0.563130567166925d0     0.486837063129218d0
K_POINTS automatic
4 4 1 0 0 0
