&CONTROL
  calculation='relax',
  prefix='calc',
  pseudo_dir='/gpfs/pace1/project/chbe-medford/medford-share/data/pseudos/SSSP_eff_PBE',
  outdir='.',
  tprnfor=.true.,
/
&SYSTEM
  ibrav=0,
  celldm(1)=1.8897261245650618d0,
  nat=48,
  ntyp=4,
  ecutwfc=40.4242561699d0,
  ecutrho=330.743914118d0,
  nbnd=289,
  occupations='smearing',
  smearing='fd',
  degauss=0.00734986475817d0,
  input_dft='PBE',
/
&ELECTRONS
  diagonalization='david',
  conv_thr=3.67493237909e-07,
  mixing_beta=0.075d0,
  mixing_mode='local-TF',
  electron_maxstep=1000,
  conv_thr=3.67493237909e-07,
/
&IONS
  ion_dynamics='ase3',
/
CELL_PARAMETERS
    7.653440956850716d0     0.000000000000000d0     0.000000000000000d0
   -3.826720478425358d0     6.628074294997001d0     0.000000000000000d0
    0.000000000000000d0    -0.000000000000000d0    29.122091969868656d0
ATOMIC_SPECIES
Ru1 101.07d0 Ru.UPF
O1 15.9994d0 O.UPF
C1 12.011d0 C.UPF
H1 1.00794d0 H.UPF
ATOMIC_POSITIONS {crystal}
Ru1      0.000000000000000d0     0.000000000000000d0     0.343381924978005d0
Ru1      0.166666666666667d0     0.083333333333333d0     0.397026838091273d0
Ru1      0.000000000000000d0     0.250000000000000d0     0.343381924978005d0
Ru1      0.166666666666667d0     0.333333333333333d0     0.397026838091273d0
Ru1      0.000000000000000d0     0.500000000000000d0     0.343381924978005d0
Ru1      0.166666666666667d0     0.583333333333333d0     0.397026838091273d0
Ru1      0.000000000000000d0     0.750000000000000d0     0.343381924978005d0
Ru1      0.166666666666667d0     0.833333333333333d0     0.397026838091273d0
Ru1      0.250000000000000d0     0.000000000000000d0     0.343381924978005d0
Ru1      0.416666666666667d0     0.083333333333333d0     0.397026838091273d0
Ru1      0.250000000000000d0     0.250000000000000d0     0.343381924978005d0
Ru1      0.416666666666667d0     0.333333333333333d0     0.397026838091273d0
Ru1      0.250000000000000d0     0.500000000000000d0     0.343381924978005d0
Ru1      0.416666666666667d0     0.583333333333333d0     0.397026838091273d0
Ru1      0.250000000000000d0     0.750000000000000d0     0.343381924978005d0
Ru1      0.416666666666667d0     0.833333333333333d0     0.397026838091273d0
Ru1      0.500000000000000d0     0.000000000000000d0     0.343381924978005d0
Ru1      0.666666666666667d0     0.083333333333333d0     0.397026838091273d0
Ru1      0.500000000000000d0     0.250000000000000d0     0.343381924978005d0
Ru1      0.666666666666667d0     0.333333333333333d0     0.397026838091273d0
Ru1      0.500000000000000d0     0.500000000000000d0     0.343381924978005d0
Ru1      0.666666666666667d0     0.583333333333333d0     0.397026838091273d0
Ru1      0.500000000000000d0     0.750000000000000d0     0.343381924978005d0
Ru1      0.666666666666667d0     0.833333333333333d0     0.397026838091273d0
Ru1      0.750000000000000d0     0.000000000000000d0     0.343381924978005d0
Ru1      0.916666666666667d0     0.083333333333333d0     0.397026838091273d0
Ru1      0.750000000000000d0     0.250000000000000d0     0.343381924978005d0
Ru1      0.916666666666667d0     0.333333333333333d0     0.397026838091273d0
Ru1      0.750000000000000d0     0.500000000000000d0     0.343381924978005d0
Ru1      0.916666666666667d0     0.583333333333333d0     0.397026838091273d0
Ru1      0.750000000000000d0     0.750000000000000d0     0.343381924978005d0
Ru1      0.916666666666667d0     0.833333333333333d0     0.397026838091273d0
O1       0.018549614901986d0     0.023646582330795d0     0.556756854084162d0
O1       0.666676175253260d0     0.333279305826037d0     0.482872319335774d0
O1       0.639749400662798d0     0.266124549962534d0     0.559327933883084d0
C1       0.844083845215428d0     0.678373528096306d0     0.583499108818765d0
C1       0.811681030081392d0     0.614848367626754d0     0.533162034678472d0
C1       0.957269038168590d0     0.905945987691036d0     0.589406357027707d0
C1       0.991038563548428d0     0.982239270746713d0     0.638130219158276d0
C1       0.697957548001670d0     0.388106968458331d0     0.527819968811531d0
H1       0.930565744479687d0     0.618683803844832d0     0.600738518369201d0
H1       0.698186390398713d0     0.617716483114011d0     0.600920682416860d0
H1       0.957590395132170d0     0.674405555498884d0     0.515810048704183d0
H1       0.725234755280997d0     0.674844529136298d0     0.516042192458953d0
H1       0.845630494899405d0     0.929930232450464d0     0.654987394277182d0
H1       0.078659063162191d0     0.927675139195035d0     0.656618075021995d0
H1       0.074767239566597d0     0.147214079296125d0     0.638214779192683d0
H1       0.592886664280741d0     0.186196792578385d0     0.479147689809741d0
K_POINTS automatic
4 4 1 0 0 0
