&CONTROL
  calculation='relax',
  prefix='calc',
  pseudo_dir='/gpfs/pace1/project/chbe-medford/medford-share/data/pseudos/SSSP_eff_PBE',
  outdir='.',
  tprnfor=.true.,
/
&SYSTEM
  ibrav=0,
  celldm(1)=1.8897261245650618d0,
  nat=47,
  ntyp=4,
  ecutwfc=40.4242561699d0,
  ecutrho=330.743914118d0,
  nbnd=307,
  occupations='smearing',
  smearing='fd',
  degauss=0.00734986475817d0,
  input_dft='PBE',
/
&ELECTRONS
  diagonalization='david',
  conv_thr=3.67493237909e-07,
  mixing_beta=0.075d0,
  mixing_mode='local-TF',
  electron_maxstep=1000,
  conv_thr=3.67493237909e-07,
/
&IONS
  ion_dynamics='ase3',
/
CELL_PARAMETERS
   10.757639726259660d0     0.000000000000000d0     0.000000000000000d0
   -5.378819863129829d0     9.316389287701540d0     0.000000000000000d0
    0.000000000000000d0    -0.000000000000000d0    30.019400942677521d0
ATOMIC_SPECIES
Rh1 102.9055d0 Rh.UPF
O1 15.9994d0 O.UPF
C1 12.011d0 C.UPF
H1 1.00794d0 H.UPF
ATOMIC_POSITIONS {crystal}
Rh1      0.000000000000000d0     0.000000000000000d0     0.333117906619627d0
Rh1      0.166666666666667d0     0.083333333333333d0     0.406267068324383d0
Rh1      0.000000000000000d0     0.250000000000000d0     0.333117906619627d0
Rh1      0.166666666666667d0     0.333333333333333d0     0.406267068324383d0
Rh1      0.000000000000000d0     0.500000000000000d0     0.333117906619627d0
Rh1      0.166666666666667d0     0.583333333333333d0     0.406267068324383d0
Rh1      0.000000000000000d0     0.750000000000000d0     0.333117906619627d0
Rh1      0.166666666666667d0     0.833333333333333d0     0.406267068324383d0
Rh1      0.250000000000000d0     0.000000000000000d0     0.333117906619627d0
Rh1      0.416666666666667d0     0.083333333333333d0     0.406267068324383d0
Rh1      0.250000000000000d0     0.250000000000000d0     0.333117906619627d0
Rh1      0.416666666666667d0     0.333333333333333d0     0.406267068324383d0
Rh1      0.250000000000000d0     0.500000000000000d0     0.333117906619627d0
Rh1      0.416666666666667d0     0.583333333333333d0     0.406267068324383d0
Rh1      0.250000000000000d0     0.750000000000000d0     0.333117906619627d0
Rh1      0.416666666666667d0     0.833333333333333d0     0.406267068324383d0
Rh1      0.500000000000000d0     0.000000000000000d0     0.333117906619627d0
Rh1      0.666666666666667d0     0.083333333333333d0     0.406267068324383d0
Rh1      0.500000000000000d0     0.250000000000000d0     0.333117906619627d0
Rh1      0.666666666666667d0     0.333333333333333d0     0.406267068324383d0
Rh1      0.500000000000000d0     0.500000000000000d0     0.333117906619627d0
Rh1      0.666666666666667d0     0.583333333333333d0     0.406267068324383d0
Rh1      0.500000000000000d0     0.750000000000000d0     0.333117906619627d0
Rh1      0.666666666666667d0     0.833333333333333d0     0.406267068324383d0
Rh1      0.750000000000000d0     0.000000000000000d0     0.333117906619627d0
Rh1      0.916666666666667d0     0.083333333333333d0     0.406267068324383d0
Rh1      0.750000000000000d0     0.250000000000000d0     0.333117906619627d0
Rh1      0.916666666666667d0     0.333333333333333d0     0.406267068324383d0
Rh1      0.750000000000000d0     0.500000000000000d0     0.333117906619627d0
Rh1      0.916666666666667d0     0.583333333333333d0     0.406267068324383d0
Rh1      0.750000000000000d0     0.750000000000000d0     0.333117906619627d0
Rh1      0.916666666666667d0     0.833333333333333d0     0.406267068324383d0
O1       0.499951447598373d0     0.499979107372528d0     0.489546544979290d0
O1       0.755746846409078d0     0.637317722203604d0     0.608645491473054d0
O1       0.404715227760574d0     0.462099625407787d0     0.559240960514062d0
O1       0.684261421279655d0     0.482042974087438d0     0.666882093380373d0
C1       0.612662687700358d0     0.433762466896334d0     0.544138693000789d0
C1       0.608085986338333d0     0.393457152422658d0     0.592301657334303d0
C1       0.493636695699657d0     0.464954808803259d0     0.533299537539690d0
C1       0.684363227189065d0     0.504766369757418d0     0.627007777589795d0
C1       0.533075375469536d0     0.256837700326532d0     0.606250766368011d0
H1       0.716293943890694d0     0.526953076819226d0     0.535442258637789d0
H1       0.598184850057971d0     0.344554086446075d0     0.522850382009457d0
H1       0.473605676553868d0     0.170259094056313d0     0.582749773353904d0
H1       0.528003845160851d0     0.226546995281335d0     0.640958430944974d0
H1       0.424578120215827d0     0.521843801269433d0     0.481481276785809d0
H1       0.806822164918159d0     0.712153581727032d0     0.631106802467748d0
K_POINTS automatic
4 4 1 0 0 0
