&CONTROL
  calculation='relax',
  prefix='calc',
  pseudo_dir='/gpfs/pace1/project/chbe-medford/medford-share/data/pseudos/SSSP_eff_PBE',
  outdir='.',
  tprnfor=.true.,
/
&SYSTEM
  ibrav=0,
  celldm(1)=1.8897261245650618d0,
  nat=56,
  ntyp=4,
  ecutwfc=40.4242561699d0,
  ecutrho=330.743914118d0,
  nbnd=355,
  occupations='smearing',
  smearing='fd',
  degauss=0.00734986475817d0,
  input_dft='PBE',
/
&ELECTRONS
  diagonalization='david',
  conv_thr=3.67493237909e-07,
  mixing_beta=0.15d0,
  mixing_mode='local-TF',
  electron_maxstep=1000,
  conv_thr=3.67493237909e-07,
/
&IONS
  ion_dynamics='ase3',
/
CELL_PARAMETERS
   11.534891500139912d0     0.000000000000000d0     0.000000000000000d0
   -5.767445750069956d0     9.989509069018357d0     0.000000000000000d0
    0.000000000000000d0    -0.000000000000000d0    29.634146526872652d0
ATOMIC_SPECIES
Au1 196.9665d0 Au.UPF
O1 15.9994d0 O.UPF
C1 12.011d0 C.UPF
H1 1.00794d0 H.UPF
ATOMIC_POSITIONS {crystal}
Au1      0.000000000000000d0     0.000000000000000d0     0.337448557559499d0
Au1      0.166666666666667d0     0.083333333333333d0     0.416902503218908d0
Au1      0.000000000000000d0     0.250000000000000d0     0.337448557559499d0
Au1      0.166666666666667d0     0.333333333333333d0     0.416902503218908d0
Au1      0.000000000000000d0     0.500000000000000d0     0.337448557559499d0
Au1      0.166666666666667d0     0.583333333333333d0     0.416902503218908d0
Au1      0.000000000000000d0     0.750000000000000d0     0.337448557559499d0
Au1      0.166666666666667d0     0.833333333333333d0     0.416902503218908d0
Au1      0.250000000000000d0     0.000000000000000d0     0.337448557559499d0
Au1      0.416666666666667d0     0.083333333333333d0     0.416902503218908d0
Au1      0.250000000000000d0     0.250000000000000d0     0.337448557559499d0
Au1      0.416666666666667d0     0.333333333333333d0     0.416902503218908d0
Au1      0.250000000000000d0     0.500000000000000d0     0.337448557559499d0
Au1      0.416666666666667d0     0.583333333333333d0     0.416902503218908d0
Au1      0.250000000000000d0     0.750000000000000d0     0.337448557559499d0
Au1      0.416666666666667d0     0.833333333333333d0     0.416902503218908d0
Au1      0.500000000000000d0     0.000000000000000d0     0.337448557559499d0
Au1      0.666666666666667d0     0.083333333333333d0     0.416902503218908d0
Au1      0.500000000000000d0     0.250000000000000d0     0.337448557559499d0
Au1      0.666666666666667d0     0.333333333333333d0     0.416902503218908d0
Au1      0.500000000000000d0     0.500000000000000d0     0.337448557559499d0
Au1      0.666666666666667d0     0.583333333333333d0     0.416902503218908d0
Au1      0.500000000000000d0     0.750000000000000d0     0.337448557559499d0
Au1      0.666666666666667d0     0.833333333333333d0     0.416902503218908d0
Au1      0.750000000000000d0     0.000000000000000d0     0.337448557559499d0
Au1      0.916666666666667d0     0.083333333333333d0     0.416902503218908d0
Au1      0.750000000000000d0     0.250000000000000d0     0.337448557559499d0
Au1      0.916666666666667d0     0.333333333333333d0     0.416902503218908d0
Au1      0.750000000000000d0     0.500000000000000d0     0.337448557559499d0
Au1      0.916666666666667d0     0.583333333333333d0     0.416902503218908d0
Au1      0.750000000000000d0     0.750000000000000d0     0.337448557559499d0
Au1      0.916666666666667d0     0.833333333333333d0     0.416902503218908d0
O1       0.551901057703864d0     0.291502565406487d0     0.650510807923499d0
O1       0.690219713180283d0     0.546468960704787d0     0.617677804202372d0
O1       0.280515334493457d0     0.141666101949169d0     0.643311904345181d0
O1       0.450978879293405d0     0.567495244253172d0     0.597685729436786d0
O1       0.374814108523943d0     0.192949671294748d0     0.527894834368832d0
O1       0.694585623310393d0     0.590308538973893d0     0.516673657791774d0
O1       0.404140551670503d0     0.054484182348861d0     0.576014013591154d0
O1       0.643045393857966d0     0.747890234133140d0     0.538987166016109d0
C1       0.478888888582084d0     0.341221445616293d0     0.626661943435108d0
C1       0.573271655717954d0     0.449441030708882d0     0.593429298098923d0
C1       0.353146980838407d0     0.223295019750694d0     0.606073970151412d0
C1       0.511834400198700d0     0.520116703971246d0     0.567181342830099d0
C1       0.381808057400576d0     0.145062817517452d0     0.569965465524187d0
C1       0.622926820924124d0     0.633950727499106d0     0.540105629168740d0
H1       0.438687543502526d0     0.386964247744562d0     0.650291583347775d0
H1       0.610785155249830d0     0.406125097411043d0     0.568238248700240d0
H1       0.295412217616033d0     0.263106624498346d0     0.588326180585859d0
H1       0.438907198031997d0     0.450310113549632d0     0.542266642776191d0
H1       0.637728253097785d0     0.370855768696648d0     0.657431514233619d0
H1       0.663846279203222d0     0.603328760851323d0     0.633794982936244d0
H1       0.204372473636308d0     0.060022984821734d0     0.632591032472969d0
H1       0.448465239226819d0     0.643409019078484d0     0.584121509418703d0
H1       0.392403709099458d0     0.141646692002740d0     0.505123529950056d0
H1       0.761233502252565d0     0.661241761192781d0     0.497149253590826d0
K_POINTS automatic
4 4 1 0 0 0
