&CONTROL
  calculation='relax',
  prefix='calc',
  pseudo_dir='/gpfs/pace1/project/chbe-medford/medford-share/data/pseudos/SSSP_eff_PBE',
  outdir='.',
  tprnfor=.true.,
/
&SYSTEM
  ibrav=0,
  celldm(1)=1.8897261245650618d0,
  nat=56,
  ntyp=4,
  ecutwfc=40.4242561699d0,
  ecutrho=330.743914118d0,
  nbnd=307,
  occupations='smearing',
  smearing='fd',
  degauss=0.00734986475817d0,
  input_dft='PBE',
/
&ELECTRONS
  diagonalization='david',
  conv_thr=3.67493237909e-07,
  mixing_beta=0.075d0,
  mixing_mode='local-TF',
  electron_maxstep=1000,
  conv_thr=3.67493237909e-07,
/
&IONS
  ion_dynamics='ase3',
/
CELL_PARAMETERS
    7.653440956850716d0     0.000000000000000d0     0.000000000000000d0
   -3.826720478425358d0     6.628074294997001d0     0.000000000000000d0
    0.000000000000000d0    -0.000000000000000d0    28.841848752463729d0
ATOMIC_SPECIES
Ru1 101.07d0 Ru.UPF
O1 15.9994d0 O.UPF
C1 12.011d0 C.UPF
H1 1.00794d0 H.UPF
ATOMIC_POSITIONS {crystal}
Ru1      0.000000000000000d0     0.000000000000000d0     0.346718412048596d0
Ru1      0.166666666666667d0     0.083333333333333d0     0.400884568552927d0
Ru1      0.000000000000000d0     0.250000000000000d0     0.346718412048596d0
Ru1      0.166666666666667d0     0.333333333333333d0     0.400884568552927d0
Ru1      0.000000000000000d0     0.500000000000000d0     0.346718412048596d0
Ru1      0.166666666666667d0     0.583333333333333d0     0.400884568552927d0
Ru1      0.000000000000000d0     0.750000000000000d0     0.346718412048596d0
Ru1      0.166666666666667d0     0.833333333333333d0     0.400884568552927d0
Ru1      0.250000000000000d0     0.000000000000000d0     0.346718412048596d0
Ru1      0.416666666666667d0     0.083333333333333d0     0.400884568552927d0
Ru1      0.250000000000000d0     0.250000000000000d0     0.346718412048596d0
Ru1      0.416666666666667d0     0.333333333333333d0     0.400884568552927d0
Ru1      0.250000000000000d0     0.500000000000000d0     0.346718412048596d0
Ru1      0.416666666666667d0     0.583333333333333d0     0.400884568552927d0
Ru1      0.250000000000000d0     0.750000000000000d0     0.346718412048596d0
Ru1      0.416666666666667d0     0.833333333333333d0     0.400884568552927d0
Ru1      0.500000000000000d0     0.000000000000000d0     0.346718412048596d0
Ru1      0.666666666666667d0     0.083333333333333d0     0.400884568552927d0
Ru1      0.500000000000000d0     0.250000000000000d0     0.346718412048596d0
Ru1      0.666666666666667d0     0.333333333333333d0     0.400884568552927d0
Ru1      0.500000000000000d0     0.500000000000000d0     0.346718412048596d0
Ru1      0.666666666666667d0     0.583333333333333d0     0.400884568552927d0
Ru1      0.500000000000000d0     0.750000000000000d0     0.346718412048596d0
Ru1      0.666666666666667d0     0.833333333333333d0     0.400884568552927d0
Ru1      0.750000000000000d0     0.000000000000000d0     0.346718412048596d0
Ru1      0.916666666666667d0     0.083333333333333d0     0.400884568552927d0
Ru1      0.750000000000000d0     0.250000000000000d0     0.346718412048596d0
Ru1      0.916666666666667d0     0.333333333333333d0     0.400884568552927d0
Ru1      0.750000000000000d0     0.500000000000000d0     0.346718412048596d0
Ru1      0.916666666666667d0     0.583333333333333d0     0.400884568552927d0
Ru1      0.750000000000000d0     0.750000000000000d0     0.346718412048596d0
Ru1      0.916666666666667d0     0.833333333333333d0     0.400884568552927d0
O1       0.495943147810079d0     0.149101979863946d0     0.639585177160925d0
O1       0.704894873813699d0     0.526213322575490d0     0.604408846584515d0
O1       0.096482409326645d0     0.903134399563894d0     0.631764890315925d0
O1       0.375245007702369d0     0.589307613011500d0     0.583890280750585d0
O1       0.216116264684755d0     0.979024616803698d0     0.514053970144788d0
O1       0.666632978480115d0     0.583276503541629d0     0.487564171565076d0
O1       0.283449569415356d0     0.798277543241816d0     0.565927542031072d0
O1       0.665387806400421d0     0.843230204005342d0     0.525371587799246d0
C1       0.383651155317824d0     0.222762929787675d0     0.614489817433793d0
C1       0.529516768254028d0     0.380959448100186d0     0.579575191868038d0
C1       0.193343661838953d0     0.041927363435689d0     0.594514962251344d0
C1       0.448858950484281d0     0.498577172344322d0     0.552459006080952d0
C1       0.236654593349944d0     0.926600846805445d0     0.557760267695442d0
C1       0.604753865627621d0     0.662720995250685d0     0.521515138749804d0
H1       0.338285844689722d0     0.295644990338227d0     0.640848470460921d0
H1       0.585095154268391d0     0.309374887454477d0     0.555390872804049d0
H1       0.088251715115560d0     0.087157996738499d0     0.580940856361548d0
H1       0.321525985930275d0     0.395320263902072d0     0.530625046972540d0
H1       0.612155815214239d0     0.265109091153804d0     0.653281587951404d0
H1       0.661994581336103d0     0.594591754176737d0     0.626134810370907d0
H1       0.966257034763761d0     0.797855684389333d0     0.620439084380428d0
H1       0.306214443475281d0     0.643970255252871d0     0.565856914702947d0
H1       0.243832929386517d0     0.903092197693797d0     0.490631774881940d0
H1       0.765976875376361d0     0.687810569087877d0     0.466980843841600d0
K_POINTS automatic
4 4 1 0 0 0
