&CONTROL
  calculation='relax',
  prefix='calc',
  pseudo_dir='/gpfs/pace1/project/chbe-medford/medford-share/data/pseudos/SSSP_eff_PBE',
  outdir='.',
  tprnfor=.true.,
/
&SYSTEM
  ibrav=0,
  celldm(1)=1.8897261245650618d0,
  nat=56,
  ntyp=4,
  ecutwfc=40.4242561699d0,
  ecutrho=330.743914118d0,
  nbnd=355,
  occupations='smearing',
  smearing='fd',
  degauss=0.00734986475817d0,
  input_dft='PBE',
/
&ELECTRONS
  diagonalization='david',
  conv_thr=3.67493237909e-07,
  mixing_beta=0.15d0,
  mixing_mode='local-TF',
  electron_maxstep=1000,
  conv_thr=3.67493237909e-07,
/
&IONS
  ion_dynamics='ase3',
/
CELL_PARAMETERS
   10.224481213245003d0     0.000000000000000d0     0.000000000000000d0
   -5.112240606622501d0     8.854660471186911d0     0.000000000000000d0
    0.000000000000000d0    -0.000000000000000d0    29.366660147157098d0
ATOMIC_SPECIES
Cu1 63.546d0 Cu.UPF
O1 15.9994d0 O.UPF
C1 12.011d0 C.UPF
H1 1.00794d0 H.UPF
ATOMIC_POSITIONS {crystal}
Cu1      0.000000000000000d0     0.000000000000000d0     0.340522209535907d0
Cu1      0.166666666666667d0     0.083333333333333d0     0.411591356576641d0
Cu1      0.000000000000000d0     0.250000000000000d0     0.340522209535907d0
Cu1      0.166666666666667d0     0.333333333333333d0     0.411591356576641d0
Cu1      0.000000000000000d0     0.500000000000000d0     0.340522209535907d0
Cu1      0.166666666666667d0     0.583333333333333d0     0.411591356576641d0
Cu1      0.000000000000000d0     0.750000000000000d0     0.340522209535907d0
Cu1      0.166666666666667d0     0.833333333333333d0     0.411591356576641d0
Cu1      0.250000000000000d0     0.000000000000000d0     0.340522209535907d0
Cu1      0.416666666666667d0     0.083333333333333d0     0.411591356576641d0
Cu1      0.250000000000000d0     0.250000000000000d0     0.340522209535907d0
Cu1      0.416666666666667d0     0.333333333333333d0     0.411591356576641d0
Cu1      0.250000000000000d0     0.500000000000000d0     0.340522209535907d0
Cu1      0.416666666666667d0     0.583333333333333d0     0.411591356576641d0
Cu1      0.250000000000000d0     0.750000000000000d0     0.340522209535907d0
Cu1      0.416666666666667d0     0.833333333333333d0     0.411591356576641d0
Cu1      0.500000000000000d0     0.000000000000000d0     0.340522209535907d0
Cu1      0.666666666666667d0     0.083333333333333d0     0.411591356576641d0
Cu1      0.500000000000000d0     0.250000000000000d0     0.340522209535907d0
Cu1      0.666666666666667d0     0.333333333333333d0     0.411591356576641d0
Cu1      0.500000000000000d0     0.500000000000000d0     0.340522209535907d0
Cu1      0.666666666666667d0     0.583333333333333d0     0.411591356576641d0
Cu1      0.500000000000000d0     0.750000000000000d0     0.340522209535907d0
Cu1      0.666666666666667d0     0.833333333333333d0     0.411591356576641d0
Cu1      0.750000000000000d0     0.000000000000000d0     0.340522209535907d0
Cu1      0.916666666666667d0     0.083333333333333d0     0.411591356576641d0
Cu1      0.750000000000000d0     0.250000000000000d0     0.340522209535907d0
Cu1      0.916666666666667d0     0.333333333333333d0     0.411591356576641d0
Cu1      0.750000000000000d0     0.500000000000000d0     0.340522209535907d0
Cu1      0.916666666666667d0     0.583333333333333d0     0.411591356576641d0
Cu1      0.750000000000000d0     0.750000000000000d0     0.340522209535907d0
Cu1      0.916666666666667d0     0.833333333333333d0     0.411591356576641d0
O1       0.621676877347967d0     0.170994886369822d0     0.646824359764299d0
O1       0.775820314803247d0     0.459944566584837d0     0.613702947993977d0
O1       0.314345697207281d0     0.003261992105544d0     0.639952337089101d0
O1       0.508792135227543d0     0.483836488891089d0     0.594313293506484d0
O1       0.424292308400443d0     0.060215474029994d0     0.523522344691182d0
O1       0.760616091943473d0     0.495283070728080d0     0.507142730792028d0
O1       0.448066324115820d0     0.899245988776868d0     0.572522275856091d0
O1       0.727554816076684d0     0.684430511646430d0     0.535468539087375d0
C1       0.538596173872881d0     0.227052615113716d0     0.623099082619028d0
C1       0.644997825538884d0     0.348987539693484d0     0.589419517158503d0
C1       0.396082494545313d0     0.093107248113472d0     0.602253028016909d0
C1       0.573846122328119d0     0.427420303044868d0     0.563165771569825d0
C1       0.427992995570883d0     0.004666219795792d0     0.565881713523354d0
C1       0.695848129411330d0     0.552812216564203d0     0.534421430209919d0
H1       0.493210066706600d0     0.278460068115635d0     0.647039625309421d0
H1       0.688725816757175d0     0.300629960499928d0     0.564506677013262d0
H1       0.332021051095412d0     0.138478618953310d0     0.584248682028303d0
H1       0.489102417712821d0     0.346139182250012d0     0.538901470670572d0
H1       0.718330995464727d0     0.260535474758857d0     0.653602121972599d0
H1       0.744611383876651d0     0.523754708393604d0     0.629511899380844d0
H1       0.227698161788084d0     0.910103660757356d0     0.628923548998718d0
H1       0.511538679894606d0     0.572120985298642d0     0.581089384819375d0
H1       0.443270956041180d0     0.002124041680090d0     0.500459652124321d0
H1       0.828867577359970d0     0.572505969764637d0     0.485411478907097d0
K_POINTS automatic
4 4 1 0 0 0
