&CONTROL
  calculation='relax',
  prefix='calc',
  pseudo_dir='/gpfs/pace1/project/chbe-medford/medford-share/data/pseudos/SSSP_eff_PBE',
  outdir='.',
  tprnfor=.true.,
/
&SYSTEM
  ibrav=0,
  celldm(1)=1.8897261245650618d0,
  nat=56,
  ntyp=4,
  ecutwfc=40.4242561699d0,
  ecutrho=330.743914118d0,
  nbnd=323,
  occupations='smearing',
  smearing='fd',
  degauss=0.00734986475817d0,
  input_dft='PBE',
/
&ELECTRONS
  diagonalization='david',
  conv_thr=3.67493237909e-07,
  mixing_beta=0.15d0,
  mixing_mode='local-TF',
  electron_maxstep=1000,
  conv_thr=3.67493237909e-07,
/
&IONS
  ion_dynamics='ase3',
/
CELL_PARAMETERS
   10.757639726259660d0     0.000000000000000d0     0.000000000000000d0
   -5.378819863129829d0     9.316389287701540d0     0.000000000000000d0
    0.000000000000000d0    -0.000000000000000d0    29.475490672899344d0
ATOMIC_SPECIES
Rh1 102.9055d0 Rh.UPF
O1 15.9994d0 O.UPF
C1 12.011d0 C.UPF
H1 1.00794d0 H.UPF
ATOMIC_POSITIONS {crystal}
Rh1      0.000000000000000d0     0.000000000000000d0     0.339264920505439d0
Rh1      0.166666666666667d0     0.083333333333333d0     0.413763901309677d0
Rh1      0.000000000000000d0     0.250000000000000d0     0.339264920505439d0
Rh1      0.166666666666667d0     0.333333333333333d0     0.413763901309677d0
Rh1      0.000000000000000d0     0.500000000000000d0     0.339264920505439d0
Rh1      0.166666666666667d0     0.583333333333333d0     0.413763901309677d0
Rh1      0.000000000000000d0     0.750000000000000d0     0.339264920505439d0
Rh1      0.166666666666667d0     0.833333333333333d0     0.413763901309677d0
Rh1      0.250000000000000d0     0.000000000000000d0     0.339264920505439d0
Rh1      0.416666666666667d0     0.083333333333333d0     0.413763901309677d0
Rh1      0.250000000000000d0     0.250000000000000d0     0.339264920505439d0
Rh1      0.416666666666667d0     0.333333333333333d0     0.413763901309677d0
Rh1      0.250000000000000d0     0.500000000000000d0     0.339264920505439d0
Rh1      0.416666666666667d0     0.583333333333333d0     0.413763901309677d0
Rh1      0.250000000000000d0     0.750000000000000d0     0.339264920505439d0
Rh1      0.416666666666667d0     0.833333333333333d0     0.413763901309677d0
Rh1      0.500000000000000d0     0.000000000000000d0     0.339264920505439d0
Rh1      0.666666666666667d0     0.083333333333333d0     0.413763901309677d0
Rh1      0.500000000000000d0     0.250000000000000d0     0.339264920505439d0
Rh1      0.666666666666667d0     0.333333333333333d0     0.413763901309677d0
Rh1      0.500000000000000d0     0.500000000000000d0     0.339264920505439d0
Rh1      0.666666666666667d0     0.583333333333333d0     0.413763901309677d0
Rh1      0.500000000000000d0     0.750000000000000d0     0.339264920505439d0
Rh1      0.666666666666667d0     0.833333333333333d0     0.413763901309677d0
Rh1      0.750000000000000d0     0.000000000000000d0     0.339264920505439d0
Rh1      0.916666666666667d0     0.083333333333333d0     0.413763901309677d0
Rh1      0.750000000000000d0     0.250000000000000d0     0.339264920505439d0
Rh1      0.916666666666667d0     0.333333333333333d0     0.413763901309677d0
Rh1      0.750000000000000d0     0.500000000000000d0     0.339264920505439d0
Rh1      0.916666666666667d0     0.583333333333333d0     0.413763901309677d0
Rh1      0.750000000000000d0     0.750000000000000d0     0.339264920505439d0
Rh1      0.916666666666667d0     0.833333333333333d0     0.413763901309677d0
O1       0.626556454991510d0     0.187247953823805d0     0.648689008665384d0
O1       0.775868067904153d0     0.460836320272621d0     0.615375712984359d0
O1       0.337878979485103d0     0.027348001140392d0     0.641261656723259d0
O1       0.520055983125884d0     0.484917392276939d0     0.596191250414463d0
O1       0.437574590690108d0     0.080133381207058d0     0.525485551984896d0
O1       0.760396419874975d0     0.494611834201013d0     0.508736815764712d0
O1       0.468893036146434d0     0.932180545745362d0     0.573599558179325d0
O1       0.732541688377441d0     0.676532878467596d0     0.536627234269821d0
C1       0.549002463904028d0     0.240237686384049d0     0.624416363135959d0
C1       0.650687740771418d0     0.356732358826470d0     0.590922776837018d0
C1       0.413211580286451d0     0.113720761912540d0     0.603548585259254d0
C1       0.582573348986142d0     0.431857888211985d0     0.565064266968431d0
C1       0.444666748796201d0     0.029294510462904d0     0.567812657393556d0
C1       0.699924249250852d0     0.550627105958875d0     0.536483200697523d0
H1       0.505652925022895d0     0.288891699928505d0     0.647890741130157d0
H1       0.690752360598321d0     0.310275428774683d0     0.565388647848576d0
H1       0.351840621682355d0     0.156412206379770d0     0.585735156748339d0
H1       0.504434216900983d0     0.356405112368066d0     0.540324585599830d0
H1       0.719363176334420d0     0.272361842031733d0     0.655779564114473d0
H1       0.747404969843825d0     0.521974343937474d0     0.631546024839942d0
H1       0.253180914959531d0     0.939155536087896d0     0.630689712589408d0
H1       0.514726053624339d0     0.564415278020952d0     0.582024945490877d0
H1       0.456010881467848d0     0.024368938750316d0     0.502789033627805d0
H1       0.819571842441804d0     0.567347057461559d0     0.485651248347246d0
K_POINTS automatic
4 4 1 0 0 0
