&CONTROL
  calculation='relax',
  prefix='calc',
  pseudo_dir='/gpfs/pace1/project/chbe-medford/medford-share/data/pseudos/SSSP_eff_PBE',
  outdir='.',
  tprnfor=.true.,
/
&SYSTEM
  ibrav=0,
  celldm(1)=1.8897261245650618d0,
  nat=47,
  ntyp=4,
  ecutwfc=40.4242561699d0,
  ecutrho=330.743914118d0,
  nbnd=307,
  occupations='smearing',
  smearing='fd',
  degauss=0.00734986475817d0,
  input_dft='PBE',
/
&ELECTRONS
  diagonalization='david',
  conv_thr=3.67493237909e-07,
  mixing_beta=0.15d0,
  mixing_mode='local-TF',
  electron_maxstep=1000,
  conv_thr=3.67493237909e-07,
/
&IONS
  ion_dynamics='ase3',
/
CELL_PARAMETERS
   10.757639726259660d0     0.000000000000000d0     0.000000000000000d0
   -5.378819863129829d0     9.316389287701540d0     0.000000000000000d0
    0.000000000000000d0    -0.000000000000000d0    30.019400942677521d0
ATOMIC_SPECIES
Rh1 102.9055d0 Rh.UPF
O1 15.9994d0 O.UPF
C1 12.011d0 C.UPF
H1 1.00794d0 H.UPF
ATOMIC_POSITIONS {crystal}
Rh1      0.000000000000000d0     0.000000000000000d0     0.333117906619627d0
Rh1      0.166666666666667d0     0.083333333333333d0     0.406267068324383d0
Rh1      0.000000000000000d0     0.250000000000000d0     0.333117906619627d0
Rh1      0.166666666666667d0     0.333333333333333d0     0.406267068324383d0
Rh1      0.000000000000000d0     0.500000000000000d0     0.333117906619627d0
Rh1      0.166666666666667d0     0.583333333333333d0     0.406267068324383d0
Rh1      0.000000000000000d0     0.750000000000000d0     0.333117906619627d0
Rh1      0.166666666666667d0     0.833333333333333d0     0.406267068324383d0
Rh1      0.250000000000000d0     0.000000000000000d0     0.333117906619627d0
Rh1      0.416666666666667d0     0.083333333333333d0     0.406267068324383d0
Rh1      0.250000000000000d0     0.250000000000000d0     0.333117906619627d0
Rh1      0.416666666666667d0     0.333333333333333d0     0.406267068324383d0
Rh1      0.250000000000000d0     0.500000000000000d0     0.333117906619627d0
Rh1      0.416666666666667d0     0.583333333333333d0     0.406267068324383d0
Rh1      0.250000000000000d0     0.750000000000000d0     0.333117906619627d0
Rh1      0.416666666666667d0     0.833333333333333d0     0.406267068324383d0
Rh1      0.500000000000000d0     0.000000000000000d0     0.333117906619627d0
Rh1      0.666666666666667d0     0.083333333333333d0     0.406267068324383d0
Rh1      0.500000000000000d0     0.250000000000000d0     0.333117906619627d0
Rh1      0.666666666666667d0     0.333333333333333d0     0.406267068324383d0
Rh1      0.500000000000000d0     0.500000000000000d0     0.333117906619627d0
Rh1      0.666666666666667d0     0.583333333333333d0     0.406267068324383d0
Rh1      0.500000000000000d0     0.750000000000000d0     0.333117906619627d0
Rh1      0.666666666666667d0     0.833333333333333d0     0.406267068324383d0
Rh1      0.750000000000000d0     0.000000000000000d0     0.333117906619627d0
Rh1      0.916666666666667d0     0.083333333333333d0     0.406267068324383d0
Rh1      0.750000000000000d0     0.250000000000000d0     0.333117906619627d0
Rh1      0.916666666666667d0     0.333333333333333d0     0.406267068324383d0
Rh1      0.750000000000000d0     0.500000000000000d0     0.333117906619627d0
Rh1      0.916666666666667d0     0.583333333333333d0     0.406267068324383d0
Rh1      0.750000000000000d0     0.750000000000000d0     0.333117906619627d0
Rh1      0.916666666666667d0     0.833333333333333d0     0.406267068324383d0
O1       0.508318569126739d0     0.535048709957172d0     0.514458444164893d0
O1       0.751471869917920d0     0.628025893740772d0     0.616783887875401d0
O1       0.403852746041920d0     0.440868103294389d0     0.580711932384541d0
O1       0.697875480765682d0     0.482817683430250d0     0.676978744397132d0
C1       0.605530123367811d0     0.414350882866184d0     0.556771363690331d0
C1       0.617679552429595d0     0.377316286219913d0     0.604221618336484d0
C1       0.495702036933848d0     0.463731621476069d0     0.553241963073758d0
C1       0.691026396518799d0     0.496580373420477d0     0.637021547087213d0
C1       0.558627516798624d0     0.242225965779724d0     0.619043353460567d0
H1       0.708113290078646d0     0.499078733875689d0     0.543323457716532d0
H1       0.569239914723207d0     0.320106106299903d0     0.534918383557255d0
H1       0.500021131399856d0     0.150583053572152d0     0.596806598037359d0
H1       0.565580737334307d0     0.220607504503296d0     0.654101106080794d0
H1       0.432433066761092d0     0.560607814448512d0     0.515549063943172d0
H1       0.794402488904313d0     0.698373786521844d0     0.640791196170622d0
K_POINTS automatic
4 4 1 0 0 0
