&CONTROL
  calculation='relax',
  prefix='calc',
  pseudo_dir='/gpfs/pace1/project/chbe-medford/medford-share/data/pseudos/SSSP_eff_PBE',
  outdir='.',
  tprnfor=.true.,
/
&SYSTEM
  ibrav=0,
  celldm(1)=1.8897261245650618d0,
  nat=56,
  ntyp=4,
  ecutwfc=40.4242561699d0,
  ecutrho=330.743914118d0,
  nbnd=307,
  occupations='smearing',
  smearing='fd',
  degauss=0.00734986475817d0,
  input_dft='PBE',
/
&ELECTRONS
  diagonalization='david',
  conv_thr=3.67493237909e-07,
  mixing_beta=0.075d0,
  mixing_mode='local-TF',
  electron_maxstep=1000,
  conv_thr=3.67493237909e-07,
/
&IONS
  ion_dynamics='ase3',
/
CELL_PARAMETERS
   11.099313722928999d0     0.000000000000000d0     0.000000000000000d0
   -5.549656861464499d0     9.612287648629747d0     0.000000000000000d0
    0.000000000000000d0    -0.000000000000000d0    29.545234585417450d0
ATOMIC_SPECIES
Pt1 195.08d0 Pt.UPF
O1 15.9994d0 O.UPF
C1 12.011d0 C.UPF
H1 1.00794d0 H.UPF
ATOMIC_POSITIONS {crystal}
Pt1      0.000000000000000d0     0.000000000000000d0     0.338464058259184d0
Pt1      0.166666666666667d0     0.083333333333333d0     0.415147758969152d0
Pt1      0.000000000000000d0     0.250000000000000d0     0.338464058259184d0
Pt1      0.166666666666667d0     0.333333333333333d0     0.415147758969152d0
Pt1      0.000000000000000d0     0.500000000000000d0     0.338464058259184d0
Pt1      0.166666666666667d0     0.583333333333333d0     0.415147758969152d0
Pt1      0.000000000000000d0     0.750000000000000d0     0.338464058259184d0
Pt1      0.166666666666667d0     0.833333333333333d0     0.415147758969152d0
Pt1      0.250000000000000d0     0.000000000000000d0     0.338464058259184d0
Pt1      0.416666666666667d0     0.083333333333333d0     0.415147758969152d0
Pt1      0.250000000000000d0     0.250000000000000d0     0.338464058259184d0
Pt1      0.416666666666667d0     0.333333333333333d0     0.415147758969152d0
Pt1      0.250000000000000d0     0.500000000000000d0     0.338464058259184d0
Pt1      0.416666666666667d0     0.583333333333333d0     0.415147758969152d0
Pt1      0.250000000000000d0     0.750000000000000d0     0.338464058259184d0
Pt1      0.416666666666667d0     0.833333333333333d0     0.415147758969152d0
Pt1      0.500000000000000d0     0.000000000000000d0     0.338464058259184d0
Pt1      0.666666666666667d0     0.083333333333333d0     0.415147758969152d0
Pt1      0.500000000000000d0     0.250000000000000d0     0.338464058259184d0
Pt1      0.666666666666667d0     0.333333333333333d0     0.415147758969152d0
Pt1      0.500000000000000d0     0.500000000000000d0     0.338464058259184d0
Pt1      0.666666666666667d0     0.583333333333333d0     0.415147758969152d0
Pt1      0.500000000000000d0     0.750000000000000d0     0.338464058259184d0
Pt1      0.666666666666667d0     0.833333333333333d0     0.415147758969152d0
Pt1      0.750000000000000d0     0.000000000000000d0     0.338464058259184d0
Pt1      0.916666666666667d0     0.083333333333333d0     0.415147758969152d0
Pt1      0.750000000000000d0     0.250000000000000d0     0.338464058259184d0
Pt1      0.916666666666667d0     0.333333333333333d0     0.415147758969152d0
Pt1      0.750000000000000d0     0.500000000000000d0     0.338464058259184d0
Pt1      0.916666666666667d0     0.583333333333333d0     0.415147758969152d0
Pt1      0.750000000000000d0     0.750000000000000d0     0.338464058259184d0
Pt1      0.916666666666667d0     0.833333333333333d0     0.415147758969152d0
O1       0.548938301094388d0     0.283934386884317d0     0.648165602529985d0
O1       0.693019254000252d0     0.543968427515062d0     0.613826717752531d0
O1       0.273493417484397d0     0.114329454532777d0     0.640531493897938d0
O1       0.465711886202829d0     0.587474579212426d0     0.593796639105203d0
O1       0.355985963535442d0     0.166658932854266d0     0.525622927297322d0
O1       0.666636077153215d0     0.583315877027389d0     0.499763773533948d0
O1       0.402415092853655d0     0.042026267253355d0     0.576261540785695d0
O1       0.665777478934356d0     0.762564824095520d0     0.536671105496226d0
C1       0.471508276507263d0     0.334726692169119d0     0.623667690098589d0
C1       0.572088716353365d0     0.443809806919086d0     0.589584279899049d0
C1       0.340283301581297d0     0.210033007088889d0     0.604168377938484d0
C1       0.516471778097630d0     0.524912146257603d0     0.563113651380132d0
C1       0.370148000010427d0     0.130510551212588d0     0.568288705422783d0
C1       0.623967841215300d0     0.638096176226087d0     0.532906467246899d0
H1       0.440226997768009d0     0.384981920659955d0     0.649398820502350d0
H1       0.610412337656119d0     0.394449258870765d0     0.565975718910700d0
H1       0.267818009639288d0     0.241221420180493d0     0.590917431905493d0
H1       0.428670374298974d0     0.453712189947047d0     0.541799495134335d0
H1       0.629071794985860d0     0.363926141239148d0     0.661535941740816d0
H1       0.663437708356522d0     0.591118215515116d0     0.635035449729833d0
H1       0.183697576031437d0     0.041735377933510d0     0.629475322357077d0
H1       0.418112425486740d0     0.625166756889641d0     0.576192594888186d0
H1       0.375097762887284d0     0.114300354578572d0     0.502758346166017d0
H1       0.735137848370674d0     0.655396486568593d0     0.479670474788711d0
K_POINTS automatic
4 4 1 0 0 0
