&CONTROL
  calculation='relax',
  prefix='calc',
  pseudo_dir='/gpfs/pace1/project/chbe-medford/medford-share/data/pseudos/SSSP_eff_PBE',
  outdir='.',
  tprnfor=.true.,
/
&SYSTEM
  ibrav=0,
  celldm(1)=1.8897261245650618d0,
  nat=56,
  ntyp=4,
  ecutwfc=40.4242561699d0,
  ecutrho=330.743914118d0,
  nbnd=355,
  occupations='smearing',
  smearing='fd',
  degauss=0.00734986475817d0,
  input_dft='PBE',
/
&ELECTRONS
  diagonalization='david',
  conv_thr=3.67493237909e-07,
  mixing_beta=0.15d0,
  mixing_mode='local-TF',
  electron_maxstep=1000,
  conv_thr=3.67493237909e-07,
/
&IONS
  ion_dynamics='ase3',
/
CELL_PARAMETERS
   10.224481213245003d0     0.000000000000000d0     0.000000000000000d0
   -5.112240606622501d0     8.854660471186911d0     0.000000000000000d0
    0.000000000000000d0    -0.000000000000000d0    29.366660147157098d0
ATOMIC_SPECIES
Cu1 63.546d0 Cu.UPF
O1 15.9994d0 O.UPF
C1 12.011d0 C.UPF
H1 1.00794d0 H.UPF
ATOMIC_POSITIONS {crystal}
Cu1      0.000000000000000d0     0.000000000000000d0     0.340522209535907d0
Cu1      0.166666666666667d0     0.083333333333333d0     0.411591356576641d0
Cu1      0.000000000000000d0     0.250000000000000d0     0.340522209535907d0
Cu1      0.166666666666667d0     0.333333333333333d0     0.411591356576641d0
Cu1      0.000000000000000d0     0.500000000000000d0     0.340522209535907d0
Cu1      0.166666666666667d0     0.583333333333333d0     0.411591356576641d0
Cu1      0.000000000000000d0     0.750000000000000d0     0.340522209535907d0
Cu1      0.166666666666667d0     0.833333333333333d0     0.411591356576641d0
Cu1      0.250000000000000d0     0.000000000000000d0     0.340522209535907d0
Cu1      0.416666666666667d0     0.083333333333333d0     0.411591356576641d0
Cu1      0.250000000000000d0     0.250000000000000d0     0.340522209535907d0
Cu1      0.416666666666667d0     0.333333333333333d0     0.411591356576641d0
Cu1      0.250000000000000d0     0.500000000000000d0     0.340522209535907d0
Cu1      0.416666666666667d0     0.583333333333333d0     0.411591356576641d0
Cu1      0.250000000000000d0     0.750000000000000d0     0.340522209535907d0
Cu1      0.416666666666667d0     0.833333333333333d0     0.411591356576641d0
Cu1      0.500000000000000d0     0.000000000000000d0     0.340522209535907d0
Cu1      0.666666666666667d0     0.083333333333333d0     0.411591356576641d0
Cu1      0.500000000000000d0     0.250000000000000d0     0.340522209535907d0
Cu1      0.666666666666667d0     0.333333333333333d0     0.411591356576641d0
Cu1      0.500000000000000d0     0.500000000000000d0     0.340522209535907d0
Cu1      0.666666666666667d0     0.583333333333333d0     0.411591356576641d0
Cu1      0.500000000000000d0     0.750000000000000d0     0.340522209535907d0
Cu1      0.666666666666667d0     0.833333333333333d0     0.411591356576641d0
Cu1      0.750000000000000d0     0.000000000000000d0     0.340522209535907d0
Cu1      0.916666666666667d0     0.083333333333333d0     0.411591356576641d0
Cu1      0.750000000000000d0     0.250000000000000d0     0.340522209535907d0
Cu1      0.916666666666667d0     0.333333333333333d0     0.411591356576641d0
Cu1      0.750000000000000d0     0.500000000000000d0     0.340522209535907d0
Cu1      0.916666666666667d0     0.583333333333333d0     0.411591356576641d0
Cu1      0.750000000000000d0     0.750000000000000d0     0.340522209535907d0
Cu1      0.916666666666667d0     0.833333333333333d0     0.411591356576641d0
O1       0.538382032605908d0     0.254717270211480d0     0.646660889570045d0
O1       0.692785836788304d0     0.543709060270252d0     0.613484700069516d0
O1       0.231257822838900d0     0.087135305545439d0     0.640052866623863d0
O1       0.426037187641977d0     0.566998520773047d0     0.593524930721543d0
O1       0.340077458001191d0     0.144096108455491d0     0.523629360474831d0
O1       0.688105314869921d0     0.585396839398394d0     0.508352116385267d0
O1       0.364699686108501d0     0.982870149293419d0     0.572274147717305d0
O1       0.642846266324454d0     0.768680530972478d0     0.534815384651614d0
C1       0.455602639442029d0     0.310937153931797d0     0.622880245280380d0
C1       0.562273696044869d0     0.432561180892920d0     0.589084396181980d0
C1       0.312769504378693d0     0.176684705769223d0     0.602283437218895d0
C1       0.492181866407190d0     0.511268362511305d0     0.562422527729061d0
C1       0.344409205181841d0     0.088227944380981d0     0.565851153954369d0
C1       0.615580979699125d0     0.638330810240320d0     0.534235200305349d0
H1       0.410367332112184d0     0.362639583990846d0     0.646764848588101d0
H1       0.606192635625087d0     0.383765905289643d0     0.564389805248758d0
H1       0.248714849101503d0     0.222129814038831d0     0.584289089719722d0
H1       0.407694412865397d0     0.430100272629661d0     0.538035577922831d0
H1       0.635039975166717d0     0.344064966475182d0     0.653614699192192d0
H1       0.660863893696105d0     0.606783669946440d0     0.629415429490496d0
H1       0.144900350431204d0     0.993694012867595d0     0.629127633954565d0
H1       0.428549715754555d0     0.655407065549842d0     0.580455099883474d0
H1       0.358295418932124d0     0.086104444833834d0     0.500354752532258d0
H1       0.764305841969955d0     0.666635012850605d0     0.489214977962191d0
K_POINTS automatic
4 4 1 0 0 0
