&CONTROL
  calculation='relax',
  prefix='calc',
  pseudo_dir='/gpfs/pace1/project/chbe-medford/medford-share/data/pseudos/SSSP_eff_PBE',
  outdir='.',
  tprnfor=.true.,
/
&SYSTEM
  ibrav=0,
  celldm(1)=1.8897261245650618d0,
  nat=47,
  ntyp=4,
  ecutwfc=40.4242561699d0,
  ecutrho=330.743914118d0,
  nbnd=291,
  occupations='smearing',
  smearing='fd',
  degauss=0.00734986475817d0,
  input_dft='PBE',
/
&ELECTRONS
  diagonalization='david',
  conv_thr=3.67493237909e-07,
  mixing_beta=0.15d0,
  mixing_mode='local-TF',
  electron_maxstep=1000,
  conv_thr=3.67493237909e-07,
/
&IONS
  ion_dynamics='ase3',
/
CELL_PARAMETERS
   11.099313722928999d0     0.000000000000000d0     0.000000000000000d0
   -5.549656861464499d0     9.612287648629747d0     0.000000000000000d0
    0.000000000000000d0    -0.000000000000000d0    30.089144855195627d0
ATOMIC_SPECIES
Pt1 195.08d0 Pt.UPF
O1 15.9994d0 O.UPF
C1 12.011d0 C.UPF
H1 1.00794d0 H.UPF
ATOMIC_POSITIONS {crystal}
Pt1      0.000000000000000d0     0.000000000000000d0     0.332345769483484d0
Pt1      0.166666666666667d0     0.083333333333333d0     0.407643287483990d0
Pt1      0.000000000000000d0     0.250000000000000d0     0.332345769483484d0
Pt1      0.166666666666667d0     0.333333333333333d0     0.407643287483990d0
Pt1      0.000000000000000d0     0.500000000000000d0     0.332345769483484d0
Pt1      0.166666666666667d0     0.583333333333333d0     0.407643287483990d0
Pt1      0.000000000000000d0     0.750000000000000d0     0.332345769483484d0
Pt1      0.166666666666667d0     0.833333333333333d0     0.407643287483990d0
Pt1      0.250000000000000d0     0.000000000000000d0     0.332345769483484d0
Pt1      0.416666666666667d0     0.083333333333333d0     0.407643287483990d0
Pt1      0.250000000000000d0     0.250000000000000d0     0.332345769483484d0
Pt1      0.416666666666667d0     0.333333333333333d0     0.407643287483990d0
Pt1      0.250000000000000d0     0.500000000000000d0     0.332345769483484d0
Pt1      0.416666666666667d0     0.583333333333333d0     0.407643287483990d0
Pt1      0.250000000000000d0     0.750000000000000d0     0.332345769483484d0
Pt1      0.416666666666667d0     0.833333333333333d0     0.407643287483990d0
Pt1      0.500000000000000d0     0.000000000000000d0     0.332345769483484d0
Pt1      0.666666666666667d0     0.083333333333333d0     0.407643287483990d0
Pt1      0.500000000000000d0     0.250000000000000d0     0.332345769483484d0
Pt1      0.666666666666667d0     0.333333333333333d0     0.407643287483990d0
Pt1      0.500000000000000d0     0.500000000000000d0     0.332345769483484d0
Pt1      0.666666666666667d0     0.583333333333333d0     0.407643287483990d0
Pt1      0.500000000000000d0     0.750000000000000d0     0.332345769483484d0
Pt1      0.666666666666667d0     0.833333333333333d0     0.407643287483990d0
Pt1      0.750000000000000d0     0.000000000000000d0     0.332345769483484d0
Pt1      0.916666666666667d0     0.083333333333333d0     0.407643287483990d0
Pt1      0.750000000000000d0     0.250000000000000d0     0.332345769483484d0
Pt1      0.916666666666667d0     0.333333333333333d0     0.407643287483990d0
Pt1      0.750000000000000d0     0.500000000000000d0     0.332345769483484d0
Pt1      0.916666666666667d0     0.583333333333333d0     0.407643287483990d0
Pt1      0.750000000000000d0     0.750000000000000d0     0.332345769483484d0
Pt1      0.916666666666667d0     0.833333333333333d0     0.407643287483990d0
O1       0.502877206987849d0     0.501439536304123d0     0.491607764464620d0
O1       0.749055378124796d0     0.635100464126213d0     0.608912198943621d0
O1       0.406882524081093d0     0.463706022482049d0     0.559980378596768d0
O1       0.681573753936808d0     0.487634069613746d0     0.667577458654386d0
C1       0.608810554033202d0     0.434337245780802d0     0.546255223685870d0
C1       0.605451857902901d0     0.394454421422214d0     0.593968192550142d0
C1       0.495030601557975d0     0.467663532517435d0     0.535442601803477d0
C1       0.679660689527144d0     0.505789940836360d0     0.627775759433160d0
C1       0.531622750039233d0     0.261363236700223d0     0.607226404095960d0
H1       0.707931117669935d0     0.525290801620980d0     0.536472759930791d0
H1       0.594862894239380d0     0.349979091260347d0     0.523865173786623d0
H1       0.473630977412543d0     0.178190000337438d0     0.583128636180317d0
H1       0.527947886023615d0     0.236537870128604d0     0.642465655776186d0
H1       0.426334704417582d0     0.519836389488398d0     0.484406901118069d0
H1       0.794496524460927d0     0.700565361378882d0     0.633195195135425d0
K_POINTS automatic
4 4 1 0 0 0
