&CONTROL
  calculation='relax',
  prefix='calc',
  pseudo_dir='/gpfs/pace1/project/chbe-medford/medford-share/data/pseudos/SSSP_eff_PBE',
  outdir='.',
  tprnfor=.true.,
/
&SYSTEM
  ibrav=0,
  celldm(1)=1.8897261245650618d0,
  nat=48,
  ntyp=4,
  ecutwfc=40.4242561699d0,
  ecutrho=330.743914118d0,
  nbnd=289,
  occupations='smearing',
  smearing='fd',
  degauss=0.00734986475817d0,
  input_dft='PBE',
/
&ELECTRONS
  diagonalization='david',
  conv_thr=3.67493237909e-07,
  mixing_beta=0.075d0,
  mixing_mode='local-TF',
  electron_maxstep=1000,
  conv_thr=3.67493237909e-07,
/
&IONS
  ion_dynamics='ase3',
/
CELL_PARAMETERS
   11.099313722928999d0     0.000000000000000d0     0.000000000000000d0
   -5.549656861464499d0     9.612287648629747d0     0.000000000000000d0
    0.000000000000000d0    -0.000000000000000d0    29.825477802822377d0
ATOMIC_SPECIES
Pt1 195.08d0 Pt.UPF
O1 15.9994d0 O.UPF
C1 12.011d0 C.UPF
H1 1.00794d0 H.UPF
ATOMIC_POSITIONS {crystal}
Pt1      0.000000000000000d0     0.000000000000000d0     0.335283815605921d0
Pt1      0.166666666666667d0     0.083333333333333d0     0.411246988478865d0
Pt1      0.000000000000000d0     0.250000000000000d0     0.335283815605921d0
Pt1      0.166666666666667d0     0.333333333333333d0     0.411246988478865d0
Pt1      0.000000000000000d0     0.500000000000000d0     0.335283815605921d0
Pt1      0.166666666666667d0     0.583333333333333d0     0.411246988478865d0
Pt1      0.000000000000000d0     0.750000000000000d0     0.335283815605921d0
Pt1      0.166666666666667d0     0.833333333333333d0     0.411246988478865d0
Pt1      0.250000000000000d0     0.000000000000000d0     0.335283815605921d0
Pt1      0.416666666666667d0     0.083333333333333d0     0.411246988478865d0
Pt1      0.250000000000000d0     0.250000000000000d0     0.335283815605921d0
Pt1      0.416666666666667d0     0.333333333333333d0     0.411246988478865d0
Pt1      0.250000000000000d0     0.500000000000000d0     0.335283815605921d0
Pt1      0.416666666666667d0     0.583333333333333d0     0.411246988478865d0
Pt1      0.250000000000000d0     0.750000000000000d0     0.335283815605921d0
Pt1      0.416666666666667d0     0.833333333333333d0     0.411246988478865d0
Pt1      0.500000000000000d0     0.000000000000000d0     0.335283815605921d0
Pt1      0.666666666666667d0     0.083333333333333d0     0.411246988478865d0
Pt1      0.500000000000000d0     0.250000000000000d0     0.335283815605921d0
Pt1      0.666666666666667d0     0.333333333333333d0     0.411246988478865d0
Pt1      0.500000000000000d0     0.500000000000000d0     0.335283815605921d0
Pt1      0.666666666666667d0     0.583333333333333d0     0.411246988478865d0
Pt1      0.500000000000000d0     0.750000000000000d0     0.335283815605921d0
Pt1      0.666666666666667d0     0.833333333333333d0     0.411246988478865d0
Pt1      0.750000000000000d0     0.000000000000000d0     0.335283815605921d0
Pt1      0.916666666666667d0     0.083333333333333d0     0.411246988478865d0
Pt1      0.750000000000000d0     0.250000000000000d0     0.335283815605921d0
Pt1      0.916666666666667d0     0.333333333333333d0     0.411246988478865d0
Pt1      0.750000000000000d0     0.500000000000000d0     0.335283815605921d0
Pt1      0.916666666666667d0     0.583333333333333d0     0.411246988478865d0
Pt1      0.750000000000000d0     0.750000000000000d0     0.335283815605921d0
Pt1      0.916666666666667d0     0.833333333333333d0     0.411246988478865d0
O1       0.909324045528073d0     0.809360464843902d0     0.567210029434853d0
O1       0.666692594443652d0     0.333323358301365d0     0.495067942380345d0
O1       0.648125457354734d0     0.287017345893472d0     0.569720474459777d0
C1       0.789022601617249d0     0.571280255513822d0     0.593321611184234d0
C1       0.766679505579537d0     0.527477000910447d0     0.544171655823955d0
C1       0.867068525273526d0     0.728200982902176d0     0.599089546463158d0
C1       0.890354025178042d0     0.780808391958890d0     0.646664334819418d0
C1       0.688262409060624d0     0.371129324438852d0     0.538955573972237d0
H1       0.848655487611633d0     0.530121694570938d0     0.610154457040153d0
H1       0.688420205462989d0     0.529454686476159d0     0.610332325042289d0
H1       0.867290114338240d0     0.568544172477441d0     0.527228888477734d0
H1       0.707071184142713d0     0.568846863157192d0     0.527455557496126d0
H1       0.790089081251282d0     0.744739122623529d0     0.663123960626940d0
H1       0.950772023726761d0     0.743184141521683d0     0.664716184394079d0
H1       0.948088448611497d0     0.894565421277949d0     0.646746900641675d0
H1       0.615811640939616d0     0.231903814802863d0     0.491431152239784d0
K_POINTS automatic
4 4 1 0 0 0
