&CONTROL
  calculation='relax',
  prefix='calc',
  pseudo_dir='/gpfs/pace1/project/chbe-medford/medford-share/data/pseudos/SSSP_eff_PBE',
  outdir='.',
  tprnfor=.true.,
/
&SYSTEM
  ibrav=0,
  celldm(1)=1.8897261245650618d0,
  nat=47,
  ntyp=4,
  ecutwfc=40.4242561699d0,
  ecutrho=330.743914118d0,
  nbnd=339,
  occupations='smearing',
  smearing='fd',
  degauss=0.00734986475817d0,
  input_dft='PBE',
/
&ELECTRONS
  diagonalization='david',
  conv_thr=3.67493237909e-07,
  mixing_beta=0.075d0,
  mixing_mode='local-TF',
  electron_maxstep=1000,
  conv_thr=3.67493237909e-07,
/
&IONS
  ion_dynamics='ase3',
/
CELL_PARAMETERS
   10.224481213245003d0     0.000000000000000d0     0.000000000000000d0
   -5.112240606622501d0     8.854660471186911d0     0.000000000000000d0
    0.000000000000000d0    -0.000000000000000d0    29.910570416935276d0
ATOMIC_SPECIES
Cu1 63.546d0 Cu.UPF
O1 15.9994d0 O.UPF
C1 12.011d0 C.UPF
H1 1.00794d0 H.UPF
ATOMIC_POSITIONS {crystal}
Cu1      0.000000000000000d0     0.000000000000000d0     0.334329966316458d0
Cu1      0.166666666666667d0     0.083333333333333d0     0.404106752883921d0
Cu1      0.000000000000000d0     0.250000000000000d0     0.334329966316458d0
Cu1      0.166666666666667d0     0.333333333333333d0     0.404106752883921d0
Cu1      0.000000000000000d0     0.500000000000000d0     0.334329966316458d0
Cu1      0.166666666666667d0     0.583333333333333d0     0.404106752883921d0
Cu1      0.000000000000000d0     0.750000000000000d0     0.334329966316458d0
Cu1      0.166666666666667d0     0.833333333333333d0     0.404106752883921d0
Cu1      0.250000000000000d0     0.000000000000000d0     0.334329966316458d0
Cu1      0.416666666666667d0     0.083333333333333d0     0.404106752883921d0
Cu1      0.250000000000000d0     0.250000000000000d0     0.334329966316458d0
Cu1      0.416666666666667d0     0.333333333333333d0     0.404106752883921d0
Cu1      0.250000000000000d0     0.500000000000000d0     0.334329966316458d0
Cu1      0.416666666666667d0     0.583333333333333d0     0.404106752883921d0
Cu1      0.250000000000000d0     0.750000000000000d0     0.334329966316458d0
Cu1      0.416666666666667d0     0.833333333333333d0     0.404106752883921d0
Cu1      0.500000000000000d0     0.000000000000000d0     0.334329966316458d0
Cu1      0.666666666666667d0     0.083333333333333d0     0.404106752883921d0
Cu1      0.500000000000000d0     0.250000000000000d0     0.334329966316458d0
Cu1      0.666666666666667d0     0.333333333333333d0     0.404106752883921d0
Cu1      0.500000000000000d0     0.500000000000000d0     0.334329966316458d0
Cu1      0.666666666666667d0     0.583333333333333d0     0.404106752883921d0
Cu1      0.500000000000000d0     0.750000000000000d0     0.334329966316458d0
Cu1      0.666666666666667d0     0.833333333333333d0     0.404106752883921d0
Cu1      0.750000000000000d0     0.000000000000000d0     0.334329966316458d0
Cu1      0.916666666666667d0     0.083333333333333d0     0.404106752883921d0
Cu1      0.750000000000000d0     0.250000000000000d0     0.334329966316458d0
Cu1      0.916666666666667d0     0.333333333333333d0     0.404106752883921d0
Cu1      0.750000000000000d0     0.500000000000000d0     0.334329966316458d0
Cu1      0.916666666666667d0     0.583333333333333d0     0.404106752883921d0
Cu1      0.750000000000000d0     0.750000000000000d0     0.334329966316458d0
Cu1      0.916666666666667d0     0.833333333333333d0     0.404106752883921d0
O1       0.416648439320902d0     0.583308644843800d0     0.487689244463035d0
O1       0.685782362759071d0     0.727808821238310d0     0.607221536118111d0
O1       0.316446099413552d0     0.543453926399390d0     0.557637245261419d0
O1       0.610569309579938d0     0.564437226730848d0     0.665670033683543d0
C1       0.535237039449230d0     0.513639118608729d0     0.542480027685661d0
C1       0.530421684678606d0     0.471232071921634d0     0.590818234438716d0
C1       0.410004402868559d0     0.546457994154055d0     0.531601433625732d0
C1       0.610676424187770d0     0.588345540402374d0     0.625650633974785d0
C1       0.451499623936019d0     0.327488559209690d0     0.604818097732494d0
H1       0.644272177293797d0     0.611689179683925d0     0.533751951080115d0
H1       0.520004250799737d0     0.419778941507145d0     0.521114258523352d0
H1       0.388928860469297d0     0.236395286618982d0     0.581231595636162d0
H1       0.446163637221019d0     0.295618336639522d0     0.639652047209094d0
H1       0.337344748107654d0     0.606313479491367d0     0.479594630544430d0
H1       0.739521018439018d0     0.806547018176373d0     0.629764573280188d0
K_POINTS automatic
4 4 1 0 0 0
