&CONTROL
  calculation='relax',
  prefix='calc',
  pseudo_dir='/gpfs/pace1/project/chbe-medford/medford-share/data/pseudos/SSSP_eff_PBE',
  outdir='.',
  tprnfor=.true.,
/
&SYSTEM
  ibrav=0,
  celldm(1)=1.8897261245650618d0,
  nat=48,
  ntyp=4,
  ecutwfc=40.4242561699d0,
  ecutrho=330.743914118d0,
  nbnd=337,
  occupations='smearing',
  smearing='fd',
  degauss=0.00734986475817d0,
  input_dft='PBE',
/
&ELECTRONS
  diagonalization='david',
  conv_thr=3.67493237909e-07,
  mixing_beta=0.075d0,
  mixing_mode='local-TF',
  electron_maxstep=1000,
  conv_thr=3.67493237909e-07,
/
&IONS
  ion_dynamics='ase3',
/
CELL_PARAMETERS
   11.534891500139912d0     0.000000000000000d0     0.000000000000000d0
   -5.767445750069956d0     9.989509069018357d0     0.000000000000000d0
    0.000000000000000d0    -0.000000000000000d0    29.914389744277578d0
ATOMIC_SPECIES
Au1 196.9665d0 Au.UPF
O1 15.9994d0 O.UPF
C1 12.011d0 C.UPF
H1 1.00794d0 H.UPF
ATOMIC_POSITIONS {crystal}
Au1      0.000000000000000d0     0.000000000000000d0     0.334287280652714d0
Au1      0.166666666666667d0     0.083333333333333d0     0.412996887899827d0
Au1      0.000000000000000d0     0.250000000000000d0     0.334287280652714d0
Au1      0.166666666666667d0     0.333333333333333d0     0.412996887899827d0
Au1      0.000000000000000d0     0.500000000000000d0     0.334287280652714d0
Au1      0.166666666666667d0     0.583333333333333d0     0.412996887899827d0
Au1      0.000000000000000d0     0.750000000000000d0     0.334287280652714d0
Au1      0.166666666666667d0     0.833333333333333d0     0.412996887899827d0
Au1      0.250000000000000d0     0.000000000000000d0     0.334287280652714d0
Au1      0.416666666666667d0     0.083333333333333d0     0.412996887899827d0
Au1      0.250000000000000d0     0.250000000000000d0     0.334287280652714d0
Au1      0.416666666666667d0     0.333333333333333d0     0.412996887899827d0
Au1      0.250000000000000d0     0.500000000000000d0     0.334287280652714d0
Au1      0.416666666666667d0     0.583333333333333d0     0.412996887899827d0
Au1      0.250000000000000d0     0.750000000000000d0     0.334287280652714d0
Au1      0.416666666666667d0     0.833333333333333d0     0.412996887899827d0
Au1      0.500000000000000d0     0.000000000000000d0     0.334287280652714d0
Au1      0.666666666666667d0     0.083333333333333d0     0.412996887899827d0
Au1      0.500000000000000d0     0.250000000000000d0     0.334287280652714d0
Au1      0.666666666666667d0     0.333333333333333d0     0.412996887899827d0
Au1      0.500000000000000d0     0.500000000000000d0     0.334287280652714d0
Au1      0.666666666666667d0     0.583333333333333d0     0.412996887899827d0
Au1      0.500000000000000d0     0.750000000000000d0     0.334287280652714d0
Au1      0.666666666666667d0     0.833333333333333d0     0.412996887899827d0
Au1      0.750000000000000d0     0.000000000000000d0     0.334287280652714d0
Au1      0.916666666666667d0     0.083333333333333d0     0.412996887899827d0
Au1      0.750000000000000d0     0.250000000000000d0     0.334287280652714d0
Au1      0.916666666666667d0     0.333333333333333d0     0.412996887899827d0
Au1      0.750000000000000d0     0.500000000000000d0     0.334287280652714d0
Au1      0.916666666666667d0     0.583333333333333d0     0.412996887899827d0
Au1      0.750000000000000d0     0.750000000000000d0     0.334287280652714d0
Au1      0.916666666666667d0     0.833333333333333d0     0.412996887899827d0
O1       0.900105474846557d0     0.791410823583661d0     0.568496373460395d0
O1       0.666636213813384d0     0.333349714885161d0     0.496568708063005d0
O1       0.648770204455253d0     0.288792298895005d0     0.570999356907697d0
C1       0.784346824904216d0     0.562320941416749d0     0.594530346024109d0
C1       0.762847443443967d0     0.520171774697470d0     0.545526474805638d0
C1       0.859445597306737d0     0.713316066329058d0     0.600281137770163d0
C1       0.881851795807375d0     0.763936927155000d0     0.647714523716639d0
C1       0.687391514318490d0     0.369728061292087d0     0.540325896260796d0
H1       0.841727868310414d0     0.522716600076926d0     0.611313161074851d0
H1       0.687543352051352d0     0.522074779380166d0     0.611490500415378d0
H1       0.859658818778894d0     0.559688177684866d0     0.528634064974687d0
H1       0.705490036994458d0     0.559979438232529d0     0.528860060284451d0
H1       0.785373032392782d0     0.729229696826467d0     0.664125228008506d0
H1       0.939988304537913d0     0.727733434544121d0     0.665712719347286d0
H1       0.937406065935756d0     0.873398291103274d0     0.647796844135676d0
H1       0.617676614543966d0     0.235759951608024d0     0.492942727237788d0
K_POINTS automatic
4 4 1 0 0 0
