&CONTROL
  calculation='relax',
  prefix='calc',
  pseudo_dir='/gpfs/pace1/project/chbe-medford/medford-share/data/pseudos/SSSP_eff_PBE',
  outdir='.',
  tprnfor=.true.,
/
&SYSTEM
  ibrav=0,
  celldm(1)=1.8897261245650618d0,
  nat=48,
  ntyp=4,
  ecutwfc=40.4242561699d0,
  ecutrho=330.743914118d0,
  nbnd=337,
  occupations='smearing',
  smearing='fd',
  degauss=0.00734986475817d0,
  input_dft='PBE',
/
&ELECTRONS
  diagonalization='david',
  conv_thr=3.67493237909e-07,
  mixing_beta=0.075d0,
  mixing_mode='local-TF',
  electron_maxstep=1000,
  conv_thr=3.67493237909e-07,
/
&IONS
  ion_dynamics='ase3',
/
CELL_PARAMETERS
   10.224481213245003d0     0.000000000000000d0     0.000000000000000d0
   -5.112240606622501d0     8.854660471186911d0     0.000000000000000d0
    0.000000000000000d0    -0.000000000000000d0    29.646903364562021d0
ATOMIC_SPECIES
Cu1 63.546d0 Cu.UPF
O1 15.9994d0 O.UPF
C1 12.011d0 C.UPF
H1 1.00794d0 H.UPF
ATOMIC_POSITIONS {crystal}
Cu1      0.000000000000000d0     0.000000000000000d0     0.337303356004234d0
Cu1      0.166666666666667d0     0.083333333333333d0     0.407700707877021d0
Cu1      0.000000000000000d0     0.250000000000000d0     0.337303356004234d0
Cu1      0.166666666666667d0     0.333333333333333d0     0.407700707877021d0
Cu1      0.000000000000000d0     0.500000000000000d0     0.337303356004234d0
Cu1      0.166666666666667d0     0.583333333333333d0     0.407700707877021d0
Cu1      0.000000000000000d0     0.750000000000000d0     0.337303356004234d0
Cu1      0.166666666666667d0     0.833333333333333d0     0.407700707877021d0
Cu1      0.250000000000000d0     0.000000000000000d0     0.337303356004234d0
Cu1      0.416666666666667d0     0.083333333333333d0     0.407700707877021d0
Cu1      0.250000000000000d0     0.250000000000000d0     0.337303356004234d0
Cu1      0.416666666666667d0     0.333333333333333d0     0.407700707877021d0
Cu1      0.250000000000000d0     0.500000000000000d0     0.337303356004234d0
Cu1      0.416666666666667d0     0.583333333333333d0     0.407700707877021d0
Cu1      0.250000000000000d0     0.750000000000000d0     0.337303356004234d0
Cu1      0.416666666666667d0     0.833333333333333d0     0.407700707877021d0
Cu1      0.500000000000000d0     0.000000000000000d0     0.337303356004234d0
Cu1      0.666666666666667d0     0.083333333333333d0     0.407700707877021d0
Cu1      0.500000000000000d0     0.250000000000000d0     0.337303356004234d0
Cu1      0.666666666666667d0     0.333333333333333d0     0.407700707877021d0
Cu1      0.500000000000000d0     0.500000000000000d0     0.337303356004234d0
Cu1      0.666666666666667d0     0.583333333333333d0     0.407700707877021d0
Cu1      0.500000000000000d0     0.750000000000000d0     0.337303356004234d0
Cu1      0.666666666666667d0     0.833333333333333d0     0.407700707877021d0
Cu1      0.750000000000000d0     0.000000000000000d0     0.337303356004234d0
Cu1      0.916666666666667d0     0.083333333333333d0     0.407700707877021d0
Cu1      0.750000000000000d0     0.250000000000000d0     0.337303356004234d0
Cu1      0.916666666666667d0     0.333333333333333d0     0.407700707877021d0
Cu1      0.750000000000000d0     0.500000000000000d0     0.337303356004234d0
Cu1      0.916666666666667d0     0.583333333333333d0     0.407700707877021d0
Cu1      0.750000000000000d0     0.750000000000000d0     0.337303356004234d0
Cu1      0.916666666666667d0     0.833333333333333d0     0.407700707877021d0
O1       0.763392873225703d0     0.766805866989741d0     0.564603172829021d0
O1       0.500001260637392d0     0.250037819880769d0     0.492026546878080d0
O1       0.479845472271371d0     0.199769747765066d0     0.567128739207584d0
C1       0.632798133068339d0     0.508354911927886d0     0.590872034446240d0
C1       0.608543305141927d0     0.460803739913567d0     0.541426030437606d0
C1       0.717521863631276d0     0.678702174208275d0     0.596674712166548d0
C1       0.742799729886305d0     0.735810806430565d0     0.644536061348457d0
C1       0.523416643226101d0     0.291078560237826d0     0.536178530165045d0
H1       0.697533359829566d0     0.463674720262262d0     0.607806270857391d0
H1       0.523587941088326d0     0.462950641265463d0     0.607985210225334d0
H1       0.717762412417619d0     0.505384722696824d0     0.524381210437715d0
H1       0.543834744744021d0     0.505713312357805d0     0.524609244768772d0
H1       0.633955863401093d0     0.696655359052817d0     0.661094829666628d0
H1       0.808387245420588d0     0.694967329829363d0     0.662696643995766d0
H1       0.805474056821369d0     0.859301175307672d0     0.644619124495684d0
H1       0.444766803877720d0     0.139940563360030d0     0.488367850984043d0
K_POINTS automatic
4 4 1 0 0 0
