&CONTROL
  calculation='relax',
  prefix='calc',
  pseudo_dir='/gpfs/pace1/project/chbe-medford/medford-share/data/pseudos/SSSP_eff_PBE',
  outdir='.',
  tprnfor=.true.,
/
&SYSTEM
  ibrav=0,
  celldm(1)=1.8897261245650618d0,
  nat=56,
  ntyp=4,
  ecutwfc=40.4242561699d0,
  ecutrho=330.743914118d0,
  nbnd=323,
  occupations='smearing',
  smearing='fd',
  degauss=0.00734986475817d0,
  input_dft='PBE',
/
&ELECTRONS
  diagonalization='david',
  conv_thr=3.67493237909e-07,
  mixing_beta=0.15d0,
  mixing_mode='local-TF',
  electron_maxstep=1000,
  conv_thr=3.67493237909e-07,
/
&IONS
  ion_dynamics='ase3',
/
CELL_PARAMETERS
   10.757639726259660d0     0.000000000000000d0     0.000000000000000d0
   -5.378819863129829d0     9.316389287701540d0     0.000000000000000d0
    0.000000000000000d0    -0.000000000000000d0    29.475490672899344d0
ATOMIC_SPECIES
Rh1 102.9055d0 Rh.UPF
O1 15.9994d0 O.UPF
C1 12.011d0 C.UPF
H1 1.00794d0 H.UPF
ATOMIC_POSITIONS {crystal}
Rh1      0.000000000000000d0     0.000000000000000d0     0.339264920505439d0
Rh1      0.166666666666667d0     0.083333333333333d0     0.413763901309677d0
Rh1      0.000000000000000d0     0.250000000000000d0     0.339264920505439d0
Rh1      0.166666666666667d0     0.333333333333333d0     0.413763901309677d0
Rh1      0.000000000000000d0     0.500000000000000d0     0.339264920505439d0
Rh1      0.166666666666667d0     0.583333333333333d0     0.413763901309677d0
Rh1      0.000000000000000d0     0.750000000000000d0     0.339264920505439d0
Rh1      0.166666666666667d0     0.833333333333333d0     0.413763901309677d0
Rh1      0.250000000000000d0     0.000000000000000d0     0.339264920505439d0
Rh1      0.416666666666667d0     0.083333333333333d0     0.413763901309677d0
Rh1      0.250000000000000d0     0.250000000000000d0     0.339264920505439d0
Rh1      0.416666666666667d0     0.333333333333333d0     0.413763901309677d0
Rh1      0.250000000000000d0     0.500000000000000d0     0.339264920505439d0
Rh1      0.416666666666667d0     0.583333333333333d0     0.413763901309677d0
Rh1      0.250000000000000d0     0.750000000000000d0     0.339264920505439d0
Rh1      0.416666666666667d0     0.833333333333333d0     0.413763901309677d0
Rh1      0.500000000000000d0     0.000000000000000d0     0.339264920505439d0
Rh1      0.666666666666667d0     0.083333333333333d0     0.413763901309677d0
Rh1      0.500000000000000d0     0.250000000000000d0     0.339264920505439d0
Rh1      0.666666666666667d0     0.333333333333333d0     0.413763901309677d0
Rh1      0.500000000000000d0     0.500000000000000d0     0.339264920505439d0
Rh1      0.666666666666667d0     0.583333333333333d0     0.413763901309677d0
Rh1      0.500000000000000d0     0.750000000000000d0     0.339264920505439d0
Rh1      0.666666666666667d0     0.833333333333333d0     0.413763901309677d0
Rh1      0.750000000000000d0     0.000000000000000d0     0.339264920505439d0
Rh1      0.916666666666667d0     0.083333333333333d0     0.413763901309677d0
Rh1      0.750000000000000d0     0.250000000000000d0     0.339264920505439d0
Rh1      0.916666666666667d0     0.333333333333333d0     0.413763901309677d0
Rh1      0.750000000000000d0     0.500000000000000d0     0.339264920505439d0
Rh1      0.916666666666667d0     0.583333333333333d0     0.413763901309677d0
Rh1      0.750000000000000d0     0.750000000000000d0     0.339264920505439d0
Rh1      0.916666666666667d0     0.833333333333333d0     0.413763901309677d0
O1       0.570226665686794d0     0.271622173997906d0     0.647758583160457d0
O1       0.716329140686439d0     0.546219152434027d0     0.614782451601082d0
O1       0.277019807016377d0     0.112056442644579d0     0.641552271644007d0
O1       0.461642580335688d0     0.566544915811258d0     0.595094616443207d0
O1       0.382012427608549d0     0.166803840548174d0     0.525856002511486d0
O1       0.712128963253407d0     0.585640101638475d0     0.510074908327529d0
O1       0.404087145266893d0     0.012894727258505d0     0.573945282551704d0
O1       0.667939488888924d0     0.759894995193215d0     0.537161185778017d0
C1       0.491215594891182d0     0.324928777527001d0     0.624445418942010d0
C1       0.592248549916626d0     0.440592311078646d0     0.590609854582020d0
C1       0.355008474147087d0     0.197293190299259d0     0.604059556467155d0
C1       0.525083706967685d0     0.514159469352939d0     0.563824670873708d0
C1       0.385640958667473d0     0.113773545329359d0     0.567849193843042d0
C1       0.642858337438127d0     0.636321400493256d0     0.536134649829889d0
H1       0.449165291005147d0     0.375026333513162d0     0.648310464807779d0
H1       0.634270997387363d0     0.393130463540545d0     0.566224321634625d0
H1       0.295026985000727d0     0.240852815818667d0     0.586331834734191d0
H1       0.445246743941059d0     0.436914034440868d0     0.539727952339523d0
H1       0.662554058413195d0     0.356298623072018d0     0.654530627680402d0
H1       0.686428410795439d0     0.606267366307518d0     0.630648678105837d0
H1       0.196829608588089d0     0.023117323576415d0     0.630633337039356d0
H1       0.466353294761067d0     0.652102128700754d0     0.581815939831386d0
H1       0.399598461911670d0     0.112826546399179d0     0.502209023774749d0
H1       0.790307559520869d0     0.665705916986066d0     0.492984440934437d0
K_POINTS automatic
4 4 1 0 0 0
