&CONTROL
  calculation='relax',
  prefix='calc',
  pseudo_dir='/gpfs/pace1/project/chbe-medford/medford-share/data/pseudos/SSSP_eff_PBE',
  outdir='.',
  tprnfor=.true.,
/
&SYSTEM
  ibrav=0,
  celldm(1)=1.8897261245650618d0,
  nat=47,
  ntyp=4,
  ecutwfc=40.4242561699d0,
  ecutrho=330.743914118d0,
  nbnd=291,
  occupations='smearing',
  smearing='fd',
  degauss=0.00734986475817d0,
  input_dft='PBE',
/
&ELECTRONS
  diagonalization='david',
  conv_thr=3.67493237909e-07,
  mixing_beta=0.075d0,
  mixing_mode='local-TF',
  electron_maxstep=1000,
  conv_thr=3.67493237909e-07,
/
&IONS
  ion_dynamics='ase3',
/
CELL_PARAMETERS
    7.653440956850716d0     0.000000000000000d0     0.000000000000000d0
   -3.826720478425358d0     6.628074294997001d0     0.000000000000000d0
    0.000000000000000d0    -0.000000000000000d0    29.385759022241906d0
ATOMIC_SPECIES
Ru1 101.07d0 Ru.UPF
O1 15.9994d0 O.UPF
C1 12.011d0 C.UPF
H1 1.00794d0 H.UPF
ATOMIC_POSITIONS {crystal}
Ru1      0.000000000000000d0     0.000000000000000d0     0.340300891749335d0
Ru1      0.166666666666667d0     0.083333333333333d0     0.393464469801471d0
Ru1      0.000000000000000d0     0.250000000000000d0     0.340300891749335d0
Ru1      0.166666666666667d0     0.333333333333333d0     0.393464469801471d0
Ru1      0.000000000000000d0     0.500000000000000d0     0.340300891749335d0
Ru1      0.166666666666667d0     0.583333333333333d0     0.393464469801471d0
Ru1      0.000000000000000d0     0.750000000000000d0     0.340300891749335d0
Ru1      0.166666666666667d0     0.833333333333333d0     0.393464469801471d0
Ru1      0.250000000000000d0     0.000000000000000d0     0.340300891749335d0
Ru1      0.416666666666667d0     0.083333333333333d0     0.393464469801471d0
Ru1      0.250000000000000d0     0.250000000000000d0     0.340300891749335d0
Ru1      0.416666666666667d0     0.333333333333333d0     0.393464469801471d0
Ru1      0.250000000000000d0     0.500000000000000d0     0.340300891749335d0
Ru1      0.416666666666667d0     0.583333333333333d0     0.393464469801471d0
Ru1      0.250000000000000d0     0.750000000000000d0     0.340300891749335d0
Ru1      0.416666666666667d0     0.833333333333333d0     0.393464469801471d0
Ru1      0.500000000000000d0     0.000000000000000d0     0.340300891749335d0
Ru1      0.666666666666667d0     0.083333333333333d0     0.393464469801471d0
Ru1      0.500000000000000d0     0.250000000000000d0     0.340300891749335d0
Ru1      0.666666666666667d0     0.333333333333333d0     0.393464469801471d0
Ru1      0.500000000000000d0     0.500000000000000d0     0.340300891749335d0
Ru1      0.666666666666667d0     0.583333333333333d0     0.393464469801471d0
Ru1      0.500000000000000d0     0.750000000000000d0     0.340300891749335d0
Ru1      0.666666666666667d0     0.833333333333333d0     0.393464469801471d0
Ru1      0.750000000000000d0     0.000000000000000d0     0.340300891749335d0
Ru1      0.916666666666667d0     0.083333333333333d0     0.393464469801471d0
Ru1      0.750000000000000d0     0.250000000000000d0     0.340300891749335d0
Ru1      0.916666666666667d0     0.333333333333333d0     0.393464469801471d0
Ru1      0.750000000000000d0     0.500000000000000d0     0.340300891749335d0
Ru1      0.916666666666667d0     0.583333333333333d0     0.393464469801471d0
Ru1      0.750000000000000d0     0.750000000000000d0     0.340300891749335d0
Ru1      0.916666666666667d0     0.833333333333333d0     0.393464469801471d0
O1       0.416680047401756d0     0.583276503541629d0     0.478539692738805d0
O1       0.776224827266731d0     0.776318998699807d0     0.600206756840865d0
O1       0.282816475750518d0     0.530033286236963d0     0.549736921363062d0
O1       0.675745258200155d0     0.558065561032109d0     0.659699108250665d0
C1       0.575106423322481d0     0.490202712792837d0     0.534309005300681d0
C1       0.568673433943595d0     0.433549757003938d0     0.583510502387120d0
C1       0.407804062564335d0     0.534046518258227d0     0.523236126311220d0
C1       0.675888356095810d0     0.590005456479538d0     0.618964986932707d0
C1       0.463238880789976d0     0.241518113520290d0     0.597760394539270d0
H1       0.720770017614334d0     0.621190985005678d0     0.525425050670923d0
H1       0.554756444502475d0     0.364811843135970d0     0.512561656778647d0
H1       0.379648558584479d0     0.119823641777745d0     0.573752652173059d0
H1       0.456110362228294d0     0.198941644482667d0     0.633216456706363d0
H1       0.310735661664377d0     0.614009411914994d0     0.470300514045919d0
H1       0.848016048826078d0     0.881507922204521d0     0.623152398637544d0
K_POINTS automatic
4 4 1 0 0 0
